%%MatrixMarket matrix array real general
%
200 1
4.0148275674548217E-1
4.0183422434913524E-1
4.025371006203365E-1
4.0358996977365214E-1
4.049907095721663E-1
4.0673649698572767E-1
4.0882381571454895E-1
4.112484655570475E-1
4.140055735959324E-1
4.1708960717177385E-1
4.204943886086976E-1
4.242131116524299E-1
4.2823835957670153E-1
4.32562124910037E-1
4.3717583073125466E-1
4.4207035347853463E-1
4.4723604721379984E-1
4.526627692813208E-1
4.5833990729697177E-1
4.642564074024177E-1
4.704008037166923E-1
4.767612489161582E-1
4.8332554587266174E-1
4.9008118027883435E-1
4.9701535418886694E-1
5.041150204027037E-1
5.113669176213583E-1
5.187576063009501E-1
5.262735051329915E-1
5.339009280783615E-1
5.416261218822329E-1
5.494353039968598E-1
5.573147008385708E-1
5.652505863044118E-1
5.732293204726341E-1
5.81237388409568E-1
5.892614390032652E-1
5.97288323741679E-1
6.053051353500295E-1
6.13299246198349E-1
6.212583463860898E-1
6.2917048140611E-1
6.370240892853908E-1
6.448080370945646E-1
6.525116567128242E-1
6.601247797291655E-1
6.676377713552798E-1
6.750415632199076E-1
6.823276849092323E-1
6.894882941130431E-1
6.965162052321006E-1
7.034049162985403E-1
7.101486340583347E-1
7.167422970630117E-1
7.231815966169961E-1
7.294629954273395E-1
7.355837438041721E-1
7.415418932631246E-1
7.473363073852145E-1
7.529666697953099E-1
7.584334891272804E-1
7.637381008523417E-1
7.688826658567571E-1
7.738701656661228E-1
7.787043942256225E-1
7.833899461590729E-1
7.879322014440008E-1
7.923373064554311E-1
7.966121513473463E-1
8.00764343757888E-1
8.048021788420823E-1
8.087346056541779E-1
8.125711899204636E-1
8.163220732625093E-1
8.199979289501735E-1
8.236099142832134E-1
8.271696197199275E-1
8.306890148907896E-1
8.341803916544921E-1
8.376563043730048E-1
8.411295076011885E-1
8.446128914050627E-1
8.481194145408619E-1
8.516620357445636E-1
8.552536433983846E-1
8.589069838568736E-1
8.626345887304607E-1
8.664487014386192E-1
8.703612033580094E-1
8.743835399030361E-1
8.785266468869894E-1
8.82800877521271E-1
8.872159304180285E-1
8.917807789676887E-1
8.965036024672488E-1
9.013917193777343E-1
9.064515230897721E-1
9.116884205746666E-1
9.171067742946739E-1
9.227098477402114E-1
9.284998301523458E-1
9.344778063912266E-1
9.406436471811481E-1
9.469959650086177E-1
9.535320859332255E-1
9.602480270808135E-1
9.671384800861936E-1
9.741968007263082E-1
9.814150049562108E-1
9.887837715295847E-1
9.962924513529947E-1
1.0039290836887593
1.0116804192855429
1.0195319504786433
1.027467948263776
1.0354715063091493
1.0435245918310962
1.051608103218651
1.0597019342526175
1.0677850447250543
1.0758355372260044
1.0838307398260065
1.0917472943456354
1.0995612498673961
1.1072481611108198
1.114783191258985
1.1221412187939341
1.129296947869942
1.1362250217273975
1.142900138626321
1.1492971697575238
1.1553912785711045
1.1611580409465811
1.1665735656165352
1.1716146142462636
1.1762587205656994
1.18048430794677
1.1842708048195199
1.187598757323674
1.1904499385989775
1.192807454127473
1.1946558425540816
1.1959811714280792
1.1967711273276542
1.197015099852364
1.1967042589939196
1.1958316254244723
1.1943921332730163
1.1923826849947927
1.189802197975422
1.18665164255065
1.182934071164158
1.1786546384292742
1.1738206119056913
1.1684413734490093
1.1625284110389829
1.15609530104112
1.1491576809059887
1.1417332123602688
1.1338415351934825
1.1255042117937193
1.1167446626343875
1.1075880929616484
1.0980614109785156
1.0881931378660754
1.0780133100249296
1.067553373960136
1.0568460742707173
1.0459253352396485
1.0348261365522633
1.023584383699702
1.0122367736495725
1.0008206563879976
9.893738929558178E-1
9.77934710616756E-1
9.665415558068274E-1
9.552329455222821E-1
9.440473178078295E-1
9.330228820080082E-1
9.22197469442354E-1
9.116083851595616E-1
9.012922614174264E-1
8.912849135239086E-1
8.816211986605127E-1
8.723348782924435E-1
8.634584847508086E-1
8.550231925506689E-1
8.470586949852588E-1
8.395930865112098E-1
8.326527514124388E-1
8.262622592015657E-1
8.204442671875148E-1
8.152194306064288E-1
8.106063206803853E-1
8.06621350934733E-1
8.032787120703095E-1
8.00590315651471E-1
7.985657468348956E-1
7.972122263275758E-1
7.965345817254109E-1
