%%MatrixMarket matrix coordinate real general
%
200 200 30000
1 1 2.661162757724233E-2
1 2 2.6582083727349257E-2
1 3 2.6523094388628925E-2
1 4 2.6434855737621735E-2
1 5 2.631766067939545E-2
1 6 2.617189722767025E-2
1 7 2.599804636455329E-2
1 8 2.5796679396404253E-2
1 9 2.5568454826173884E-2
1 10 2.5314114766176593E-2
1 11 2.5034480918641643E-2
1 12 2.4730450154502922E-2
1 13 2.4402989723706088E-2
1 14 2.4053132132809074E-2
1 15 2.3681969727805664E-2
1 16 2.3290649021895087E-2
1 17 2.2880364809340033E-2
1 18 2.2452354107592026E-2
1 19 2.2007889970512454E-2
1 20 2.154827521577933E-2
1 21 2.1074836109448023E-2
1 22 2.0588916050136963E-2
1 23 2.009186929444905E-2
1 24 1.9585054764031495E-2
1 25 1.906982997314119E-2
1 26 1.8547545113741373E-2
1 27 1.8019537333033853E-2
1 28 1.7487125235957617E-2
1 29 1.695160364258829E-2
1 30 1.641423862758612E-2
1 31 1.5876262865894858E-2
1 32 1.5338871305824394E-2
1 33 1.4803217187489306E-2
1 34 1.427040842135859E-2
1 35 1.3741504338430976E-2
1 36 1.3217512820318945E-2
1 37 1.2699387814333704E-2
1 38 1.2188027235542855E-2
1 39 1.1684271254750515E-2
1 40 1.1188900968451822E-2
1 41 1.0702637444063887E-2
1 42 1.02261411311542E-2
1 43 9.760011626993663E-3
1 44 9.3047877825704E-3
1 45 8.86094813322488E-3
1 46 8.428911636316594E-3
1 47 8.009038696814463E-3
1 48 7.601632460421307E-3
1 49 7.206940352798597E-3
1 50 6.8251558426499805E-3
1 51 6.456420405846832E-3
1 52 6.100825667430469E-3
1 53 5.758415698195177E-3
1 54 5.429189442633858E-3
1 55 5.113103255301962E-3
1 56 4.810073523112001E-3
1 57 4.519979351695938E-3
1 58 4.242665294750323E-3
1 59 3.977944106193038E-3
1 60 3.725599495993938E-3
1 61 3.4853888716774714E-3
1 62 3.2570460487163022E-3
1 63 3.0402839143239633E-3
1 64 2.8347970304948853E-3
1 65 2.64026416351564E-3
1 66 2.4563507285662043E-3
1 67 2.282711139429899E-3
1 68 2.1189910547214563E-3
1 69 1.9648295134116695E-3
1 70 1.8198609537626283E-3
1 71 1.6837171110790766E-3
1 72 1.5560287909197076E-3
1 73 1.4364275155891227E-3
1 74 1.324547042839964E-3
1 75 1.2200247567497285E-3
1 76 1.1225029316936667E-3
1 77 1.0316298712106922E-3
1 78 9.470609243512971E-4
1 79 8.684593828040279E-4
1 80 7.95497262720052E-4
1 81 7.278559756945721E-4
1 82 6.652268938209856E-4
1 83 6.07311814111132E-4
1 84 5.538233278757602E-4
1 85 5.044851008870904E-4
1 86 4.590320703041021E-4
1 87 4.172105644354038E-4
1 88 3.787783514489834E-4
1 89 3.4350462311776275E-4
1 90 3.111699196197778E-4
1 91 2.815660012971628E-4
1 92 2.544956731240875E-4
1 93 2.297725674454965E-4
1 94 2.0722089033092345E-4
1 95 1.8667513664563786E-4
1 96 1.6797977867956003E-4
1 97 1.509889328971454E-4
1 98 1.3556600908293362E-4
1 99 1.2158334586151654E-4
1 100 5.746833410330014E-5
1 101 5.1453502167554E-5
2 1 2.6582083727349257E-2
2 2 2.6552638238521997E-2
2 3 2.6493845076342067E-2
2 4 2.640589933040264E-2
2 5 2.6289092285896536E-2
2 6 2.6143809816278486E-2
2 7 2.5970530259521216E-2
2 8 2.576982179432292E-2
2 9 2.5542339336406962E-2
2 10 2.5288820978638937E-2
2 11 2.5010084002037872E-2
2 12 2.470702048784481E-2
2 13 2.438059256360591E-2
2 14 2.4031827318702674E-2
2 15 2.3661811426898497E-2
2 16 2.3271685515250613E-2
2 17 2.286263832014708E-2
2 18 2.243590067226046E-2
2 19 2.1992739352858906E-2
2 20 2.1534450864181147E-2
2 21 2.1062355156468274E-2
2 22 2.057778935376011E-2
2 23 2.0082101519719404E-2
2 24 1.9576644503558747E-2
2 25 1.9062769904631675E-2
2 26 1.8541822192433673E-2
2 27 1.8015133016665137E-2
2 28 1.748401573966453E-2
2 29 1.6949760220955443E-2
2 30 1.6413627880897032E-2
2 31 1.5876847067515652E-2
2 32 1.5340608747559771E-2
2 33 1.4806062539693679E-2
2 34 1.427431310456169E-2
2 35 1.374641690324656E-2
2 36 1.3223379332445735E-2
2 37 1.2706152241528096E-2
2 38 1.2195631833541365E-2
2 39 1.1692656949244162E-2
2 40 1.1198007730362579E-2
2 41 1.0712404655542134E-2
2 42 1.023650793990335E-2
2 43 9.770917286730936E-3
2 44 9.316171977648141E-3
2 45 8.872751285662114E-3
2 46 8.441075193722749E-3
2 47 8.021505399923436E-3
2 48 7.614346589191754E-3
2 49 7.21984795027269E-3
2 50 6.838204915995448E-3
2 51 6.469561104233618E-3
2 52 6.11401043661154E-3
2 53 5.77159941186915E-3
2 54 5.4423295108632815E-3
2 55 5.126159710443898E-3
2 56 4.823009083885899E-3
2 57 4.532759466166386E-3
2 58 4.255258163138653E-3
2 59 3.990320684551223E-3
2 60 3.7377334818765712E-3
2 61 3.497256673032769E-3
2 62 3.2686267372851316E-3
2 63 3.0515591648872247E-3
2 64 2.845751047344718E-3
2 65 2.6508835955454495E-3
2 66 2.466624574379335E-3
2 67 2.2926306438577613E-3
2 68 2.1285495981201124E-3
2 69 1.974022495072415E-3
2 70 1.828685670728118E-3
2 71 1.6921726336032593E-3
2 72 1.5641158357484917E-3
2 73 1.444148318170549E-3
2 74 1.3319052294988873E-3
2 75 1.2270252177839023E-3
2 76 1.129151696266754E-3
2 77 1.0379339848342716E-3
2 78 9.530283296634232E-4
2 79 8.740988042673212E-4
2 80 8.008180957785481E-4
2 81 7.328681808464655E-4
2 82 6.699408959847185E-4
2 83 6.117384075856138E-4
2 84 5.579735871224622E-4
2 85 5.08370297292772E-4
2 86 4.626635950183921E-4
2 87 4.205998573176817E-4
2 88 3.819368361041831E-4
2 89 3.464436479509985E-4
2 90 3.1390070479514774E-4
2 91 2.840995914467025E-4
2 92 2.5684289561857184E-4
2 93 2.3194399600951442E-4
2 94 2.0922681376021093E-4
2 95 1.885255323648456E-4
2 96 1.6968429086322323E-4
2 97 1.5255685486534825E-4
2 98 1.370062696757283E-4
2 99 7.145099732471724E-5
2 100 6.41150117582164E-5
2 101 5.746833410330014E-5
2 102 5.1453502167554E-5
3 1 2.6523094388628925E-2
3 2 2.6493845076342067E-2
3 3 2.6435443180295712E-2
3 4 2.6348081624616868E-2
3 5 2.6232048467285676E-2
3 6 2.60877253177475E-2
3 7 2.5915585246048117E-2
3 8 2.571619019952392E-2
3 9 2.5490187946787972E-2
3 10 2.523830857226824E-2
3 11 2.49613605478421E-2
3 12 2.4660226411140858E-2
3 13 2.4335858082841395E-2
3 14 2.398927185769533E-2
3 15 2.3621543106147624E-2
3 16 2.323380072515049E-2
3 17 2.2827221378171038E-2
3 18 2.240302356541396E-2
3 19 2.1962461565929153E-2
3 20 2.1506819293547846E-2
3 21 2.103740410849323E-2
3 22 2.0555540626050715E-2
3 23 2.0062564562869808E-2
3 24 1.9559816660319588E-2
3 25 1.904863672285123E-2
3 26 1.8530357807555436E-2
3 27 1.800630059906435E-2
3 28 1.7477768001662963E-2
3 29 1.6946039977973268E-2
3 30 1.641236866088498E-2
3 31 1.5877973762561944E-2
3 32 1.5344038301384939E-2
3 33 1.4811704664632157E-2
3 34 1.4282071021581648E-2
3 35 1.3756188098576448E-2
3 36 1.323505632445571E-2
3 37 1.2719623351653395E-2
3 38 1.2210781955229403E-2
3 39 1.170936830915343E-2
3 40 1.1216160636334474E-2
3 41 1.0731878226202043E-2
3 42 1.0257180811118871E-2
3 43 9.792668290557829E-3
3 44 9.33888078982265E-3
3 45 8.89629903814601E-3
3 46 8.465345049268958E-3
3 47 8.04638308610004E-3
3 48 7.639720889774821E-3
3 49 7.245611152388606E-3
3 50 6.8642532118563275E-3
3 51 6.495794946760156E-3
3 52 6.140334848672298E-3
3 53 5.797924249279643E-3
3 54 5.468569679679191E-3
3 55 5.152235339447218E-3
3 56 4.8488456534982825E-3
3 57 4.558287895328614E-3
3 58 4.280414855967286E-3
3 59 4.015047538822187E-3
3 60 3.761977861590054E-3
3 61 3.520971347484232E-3
3 62 3.2917697892036915E-3
3 63 3.0740938703058864E-3
3 64 2.8676457299377884E-3
3 65 2.6721114582084126E-3
3 66 2.4871635108370065E-3
3 67 2.3124630330695482E-3
3 68 2.1476620842087197E-3
3 69 1.9924057554365606E-3
3 70 1.846334174913046E-3
3 71 1.7090843953975331E-3
3 72 1.5802921608541005E-3
3 73 1.4595935496582563E-3
3 74 1.3466264931144873E-3
3 75 1.2410321690159128E-3
3 76 1.1424562709245072E-3
3 77 1.0505501547194848E-3
3 78 9.649718647502957E-4
3 79 8.853870426379432E-4
3 80 8.114697223937347E-4
3 81 7.429030160686944E-4
3 82 6.793796946110937E-4
3 83 6.206026689960487E-4
3 84 5.662853770026255E-4
3 85 5.161520812537639E-4
3 86 4.6993808430635154E-4
3 87 4.2738986668717144E-4
3 88 3.8826515381969683E-4
3 89 3.523329177815681E-4
3 90 3.193733197779232E-4
3 91 2.8917759911655677E-4
3 92 2.615479143321294E-4
3 93 2.3629714193328625E-4
3 94 2.1324863804343658E-4
3 95 1.922359679777963E-4
3 96 1.7310260855063383E-4
3 97 1.5570162764180613E-4
3 98 8.844184310713185E-5
3 99 7.953793557242816E-5
3 100 7.145099732471724E-5
3 101 6.41150117582164E-5
3 102 5.746833410330014E-5
3 103 5.1453502167554E-5
4 1 2.6434855737621735E-2
4 2 2.640589933040264E-2
4 3 2.6348081624616868E-2
4 4 2.6261592317178752E-2
4 5 2.6146714656467833E-2
4 6 2.6003823897055307E-2
4 7 2.5833385257750207E-2
4 8 2.563595139851317E-2
4 9 2.54121594353852E-2
4 10 2.5162727515991138E-2
4 11 2.4888450981371227E-2
4 12 2.4590198142838693E-2
4 13 2.426890570523028E-2
4 14 2.3925573870286345E-2
4 15 2.3561261155947325E-2
4 16 2.3177078969068052E-2
4 17 2.2774185970417367E-2
4 18 2.2353782271839727E-2
4 19 2.1917103506102896E-2
4 20 2.1465414810241237E-2
4 21 2.100000476313029E-2
4 22 2.052217931760293E-2
4 23 2.0033255766650895E-2
4 24 1.9534556782162288E-2
4 25 1.9027404563243352E-2
4 26 1.8513115129481904E-2
4 27 1.7992992792553265E-2
4 28 1.7468324837373088E-2
4 29 1.6940376441592495E-2
4 30 1.641038585963818E-2
4 31 1.5879559894754265E-2
4 32 1.534906967963433E-2
4 33 1.4820046783272908E-2
4 34 1.4293579658646915E-2
4 35 1.3770710442790799E-2
4 36 1.325243211778411E-2
4 37 1.2739686038157018E-2
4 38 1.223335982726546E-2
4 39 1.1734285642319715E-2
4 40 1.1243238804992893E-2
4 41 1.0760936791911212E-2
4 42 1.0288038576856524E-2
4 43 9.825144314210586E-3
4 44 9.372795351055698E-3
4 45 8.931474553429495E-3
4 46 8.501606930523303E-3
4 47 8.08356053912034E-3
4 48 7.6776476492968915E-3
4 49 7.284126151358458E-3
4 50 6.903201183153313E-3
4 51 6.535026956295008E-3
4 52 6.179708759428261E-3
4 53 5.837305116482339E-3
4 54 5.50783007786358E-3
4 55 5.191255622733575E-3
4 56 4.887514150889933E-3
4 57 4.596501043299182E-3
4 58 4.318077271012147E-3
4 59 4.052072033006117E-3
4 60 3.7982854044298475E-3
4 61 3.5564909777609766E-3
4 62 3.3264384805049866E-3
4 63 3.1078563542542553E-3
4 64 2.9004542811695818E-3
4 65 2.703925645229346E-3
4 66 2.5179499168986263E-3
4 67 2.342194951187965E-3
4 68 2.176319190385997E-3
4 69 2.019973764049351E-3
4 70 1.8728044801059759E-3
4 71 1.7344537021638873E-3
4 72 1.6045621093072975E-3
4 73 1.4827703357980387E-3
4 74 1.3687204891752818E-3
4 75 1.262057546255092E-3
4 76 1.1624306274686436E-3
4 77 1.0694941508405313E-3
4 78 9.82908867694005E-4
4 79 9.023427828767092E-4
4 80 8.274719629280897E-4
4 81 7.579812361583628E-4
4 82 6.935647890800247E-4
4 83 6.339266640281054E-4
4 84 5.787811631273504E-4
4 85 5.278531640162051E-4
4 86 4.8087835292254325E-4
4 87 4.3760338080836667E-4
4 88 3.9778594836455643E-4
4 89 3.611948256466215E-4
4 90 3.276098121029771E-4
4 91 2.9682164266335006E-4
4 92 2.686318454312712E-4
4 93 2.428525563660516E-4
4 94 2.1930629615087163E-4
4 95 1.9782571422922483E-4
4 96 1.7825330475637922E-4
4 97 1.0898759679241744E-4
4 98 9.8233293538506E-5
4 99 8.844184310713185E-5
4 100 7.953793557242816E-5
4 101 7.145099732471724E-5
4 102 6.41150117582164E-5
4 103 5.746833410330014E-5
4 104 5.1453502167554E-5
5 1 2.631766067939545E-2
5 2 2.6289092285896536E-2
5 3 2.6232048467285676E-2
5 4 2.6146714656467833E-2
5 5 2.6033367746948383E-2
5 6 2.5892374596470535E-2
5 7 2.572419004952036E-2
5 8 2.5529354493611486E-2
5 9 2.5308490967716334E-2
5 10 2.506230184448819E-2
5 11 2.4791565110987727E-2
5 12 2.449713027546065E-2
5 13 2.417991393028364E-2
5 14 2.3840895003482274E-2
5 15 2.3481109733206773E-2
5 16 2.3101646401214204E-2
5 17 2.270363986273674E-2
5 18 2.228826591110631E-2
5 19 2.1856735516151818E-2
5 20 2.141028897568534E-2
5 21 2.0950190019350938E-2
5 22 2.047771990373047E-2
5 23 1.999417153689541E-2
5 24 1.950084366957466E-2
5 25 1.8999035188792965E-2
5 26 1.8490039548241178E-2
5 27 1.7975139367790646E-2
5 28 1.7455601232482798E-2
5 29 1.6932670719038E-2
5 30 1.640756767546178E-2
5 31 1.5881481776710567E-2
5 32 1.5355568376642233E-2
5 33 1.4830944673649088E-2
5 34 1.4308686204482059E-2
5 35 1.3789823677854576E-2
5 36 1.3275340156492106E-2
5 37 1.2766168593396174E-2
5 38 1.226318972524733E-2
5 39 1.1767230323104923E-2
5 40 1.1279061797896454E-2
5 41 1.0799399155647371E-2
5 42 1.0328900295002927E-2
5 43 9.868165637354393E-3
5 44 9.41773807781743E-3
5 45 8.97810324343299E-3
5 46 8.549690043280878E-3
5 47 8.132871493720153E-3
5 48 7.727965800703979E-3
5 49 7.335237680061599E-3
5 50 6.954899895797138E-3
5 51 6.5871149958214165E-3
5 52 6.231997224105048E-3
5 53 5.889614588012198E-3
5 54 5.559991059536723E-3
5 55 5.243108889306295E-3
5 56 4.938911012534475E-3
5 57 4.647303526573466E-3
5 58 4.368158220338014E-3
5 59 4.101315136619807E-3
5 60 3.8465851491770397E-3
5 61 3.6037525374506022E-3
5 62 3.3725775428115404E-3
5 63 3.1527988913686816E-3
5 64 2.9441362695458127E-3
5 65 2.746292739859795E-3
5 66 2.5589570855803047E-3
5 67 2.3818060742150744E-3
5 68 2.2145066310285963E-3
5 69 2.056717915055412E-3
5 70 1.9080932913001923E-3
5 71 1.7682821940157405E-3
5 72 1.6369318771078255E-3
5 73 1.513689048824323E-3
5 74 1.3982013889386436E-3
5 75 1.2901189476280126E-3
5 76 1.1890954261711162E-3
5 77 1.0947893404431636E-3
5 78 1.0068650689669448E-3
5 79 9.249937879841513E-4
5 80 8.488542966413374E-4
5 81 7.781337359394197E-4
5 82 7.125282055753746E-4
5 83 6.517432832113263E-4
5 84 5.95494451041685E-4
5 85 5.435074347961298E-4
5 86 4.955184605182203E-4
5 87 4.5127443459992825E-4
5 88 4.1053305263529134E-4
5 89 3.7306284268596545E-4
5 90 3.386431485320484E-4
5 91 3.0706405841769154E-4
5 92 2.781262846972722E-4
5 93 2.5164099964885655E-4
5 94 2.2742963255183984E-4
5 95 2.0532363292945455E-4
5 96 1.3371070247100844E-4
5 97 1.2078497065307907E-4
5 98 1.0898759679241744E-4
5 99 9.8233293538506E-5
5 100 8.844184310713185E-5
5 101 7.953793557242816E-5
5 102 7.145099732471724E-5
5 103 6.41150117582164E-5
5 104 5.746833410330014E-5
5 105 5.1453502167554E-5
6 1 2.617189722767025E-2
6 2 2.6143809816278486E-2
6 3 2.60877253177475E-2
6 4 2.6003823897055307E-2
6 5 2.5892374596470535E-2
6 6 2.5753733899413433E-2
6 7 2.5588343832331814E-2
6 8 2.5396729618723524E-2
6 9 2.5179496902714475E-2
6 10 2.4937328562712927E-2
6 11 2.467098113857761E-2
6 12 2.4381280898432674E-2
6 13 2.4069119573712643E-2
6 14 2.3735449793204064E-2
6 15 2.338128024874915E-2
6 16 2.3007670626875462E-2
6 17 2.2615726341903144E-2
6 18 2.220659310704883E-2
6 19 2.178145138068875E-2
6 20 2.134151072526151E-2
6 21 2.0888004116285525E-2
6 22 2.0422182238643418E-2
6 23 1.9945307806654232E-2
6 24 1.9458649943526085E-2
6 25 1.8963478654572485E-2
6 26 1.8461059427101703E-2
6 27 1.795264798817071E-2
6 28 1.7439485249455558E-2
6 29 1.6922792466352084E-2
6 30 1.6403766636110387E-2
6 31 1.588357615734975E-2
6 32 1.5363356770725325E-2
6 33 1.4844207797851384E-2
6 34 1.4327188692856749E-2
6 35 1.3813315918183366E-2
6 36 1.3303560153466641E-2
6 37 1.2798843843582418E-2
6 38 1.2300039089235638E-2
6 39 1.1807965880824067E-2
6 40 1.1323390673759402E-2
6 41 1.0847025300988168E-2
6 42 1.037952621614524E-2
6 43 9.92149405860977E-3
6 44 9.473473529731682E-3
6 45 9.035953567668812E-3
6 46 8.60936780662984E-3
6 47 8.194095304864514E-3
6 48 7.790461524484861E-3
6 49 7.39873954514266E-3
6 50 7.019151492729702E-3
6 51 6.651870163607179E-3
6 52 6.297020824405353E-3
6 53 5.954683167159433E-3
6 54 5.6248933994549125E-3
6 55 5.307646449337623E-3
6 56 5.002898264989828E-3
6 57 4.710568189573306E-3
6 58 4.430541392181127E-3
6 59 4.162671336508936E-3
6 60 3.906782269640563E-3
6 61 3.6626717142276034E-3
6 62 3.4301129483142972E-3
6 63 3.208857458103098E-3
6 64 2.998637350058895E-3
6 65 2.7991677098967715E-3
6 66 2.6101488971762435E-3
6 67 2.4312687654209353E-3
6 68 2.2622047988844897E-3
6 69 2.1026261582794375E-3
6 70 1.9521956289651763E-3
6 71 1.8105714662441305E-3
6 72 1.677409133532766E-3
6 73 1.5523629302484302E-3
6 74 1.435087507277054E-3
6 75 1.3252392688546677E-3
6 76 1.2224776606025326E-3
6 77 1.1264663442975297E-3
6 78 1.03687426073331E-3
6 79 9.53376582731573E-4
6 80 8.756555609954815E-4
6 81 8.034012660583491E-4
6 82 7.363122300707214E-4
6 83 6.740959925889542E-4
6 84 6.164695548801056E-4
6 85 5.631597475437002E-4
6 86 5.139035164735148E-4
6 87 4.6844813234514493E-4
6 88 4.2655132892133727E-4
6 89 3.879813755207182E-4
6 90 3.5251708900067987E-4
6 91 3.1994779056597055E-4
6 92 2.900732126352769E-4
6 93 2.627033608830605E-4
6 94 2.3765833642743945E-4
6 95 1.6331462079362345E-4
6 96 1.478552988261544E-4
6 97 1.3371070247100844E-4
6 98 1.2078497065307907E-4
6 99 1.0898759679241744E-4
6 100 9.8233293538506E-5
6 101 8.844184310713185E-5
6 102 7.953793557242816E-5
6 103 7.145099732471724E-5
6 104 6.41150117582164E-5
6 105 5.746833410330014E-5
6 106 5.1453502167554E-5
7 1 2.599804636455329E-2
7 2 2.5970530259521216E-2
7 3 2.5915585246048117E-2
7 4 2.5833385257750207E-2
7 5 2.572419004952036E-2
7 6 2.5588343832331814E-2
7 7 2.54262734686166E-2
7 8 2.5238486241434804E-2
7 9 2.5025567213720117E-2
7 10 2.4788176196803895E-2
7 11 2.4527044350157873E-2
7 12 2.4242970436829603E-2
7 13 2.3936816761353102E-2
7 14 2.360950481897952E-2
7 15 2.3262010686872756E-2
7 16 2.2895360189438094E-2
7 17 2.251062387118755E-2
7 18 2.210891181148559E-2
7 19 2.1691368316158526E-2
7 20 2.125916652128893E-2
7 21 2.0813502944553995E-2
7 22 2.0355592019209286E-2
7 23 1.988666064527409E-2
7 24 1.940794279165206E-2
7 25 1.8920674181834827E-2
7 26 1.842608709450202E-2
7 27 1.7925405308766615E-2
7 28 1.7419839222039997E-2
7 29 1.691058116652794E-2
7 30 1.6398800948240054E-2
7 31 1.5885641630125145E-2
7 32 1.5372215578558902E-2
7 33 1.4859600789932986E-2
7 34 1.434883751155269E-2
7 35 1.3840925168468812E-2
7 36 1.3336819605273678E-2
7 37 1.2837430649306104E-2
7 38 1.2343619999159155E-2
7 39 1.1856199439890117E-2
7 40 1.1375929383915781E-2
7 41 1.0903517734257271E-2
7 42 1.043961906459501E-2
7 43 9.984834108522533E-3
7 44 9.539709548461152E-3
7 45 9.104738092928534E-3
7 46 8.68035882925245E-3
7 47 8.266957837394548E-3
7 48 7.864869049303195E-3
7 49 7.474375337152965E-3
7 50 7.0957098129526995E-3
7 51 6.729057321313639E-3
7 52 6.374556106661563E-3
7 53 6.032299635848068E-3
7 54 5.702338556960332E-3
7 55 5.384682775138445E-3
7 56 5.0793036263764545E-3
7 57 4.786136130597489E-3
7 58 4.505081305744228E-3
7 59 4.236008525201881E-3
7 60 3.9787579015595E-3
7 61 3.733142680504257E-3
7 62 3.498951629519161E-3
7 63 3.2759514070045104E-3
7 64 3.0638888984540567E-3
7 65 2.8624935073753434E-3
7 66 2.671479389737402E-3
7 67 2.4905476218456584E-3
7 68 2.319388292671777E-3
7 69 2.1576825127942543E-3
7 70 2.0051043332233757E-3
7 71 1.8613225684822017E-3
7 72 1.7260025193847352E-3
7 73 1.5988075919854967E-3
7 74 1.4794008101644545E-3
7 75 1.367446220251574E-3
7 76 1.2626101869810812E-3
7 77 1.164562580892679E-3
7 78 1.072977858062158E-3
7 79 9.875360337446401E-4
7 80 9.079235521485846E-4
7 81 8.338340551267832E-4
7 82 7.649690530719287E-4
7 83 7.010385017395008E-4
7 84 6.417612890909693E-4
7 85 5.868656365574906E-4
7 86 5.360894193706248E-4
7 87 4.891804107949238E-4
7 88 4.458964552305718E-4
7 89 4.060055752360517E-4
7 90 3.692860175546404E-4
7 91 3.3552624321826524E-4
7 92 3.045248667517588E-4
7 93 2.7609054941385983E-4
7 94 1.9858834912484408E-4
7 95 1.801900023241393E-4
7 96 1.6331462079362345E-4
7 97 1.478552988261544E-4
7 98 1.3371070247100844E-4
7 99 1.2078497065307907E-4
7 100 1.0898759679241744E-4
7 101 9.8233293538506E-5
7 102 8.844184310713185E-5
7 103 7.953793557242816E-5
7 104 7.145099732471724E-5
7 105 6.41150117582164E-5
7 106 5.746833410330014E-5
7 107 5.1453502167554E-5
8 1 2.5796679396404253E-2
8 2 2.576982179432292E-2
8 3 2.571619019952392E-2
8 4 2.563595139851317E-2
8 5 2.5529354493611486E-2
8 6 2.5396729618723524E-2
8 7 2.5238486241434804E-2
8 8 2.505511106361319E-2
8 9 2.4847165535524227E-2
8 10 2.4615283001165063E-2
8 11 2.4360165495055888E-2
8 12 2.4082580213078297E-2
8 13 2.3783355682096483E-2
8 14 2.3463377655021794E-2
8 15 2.3123584759668463E-2
8 16 2.2764963931184844E-2
8 17 2.2388545659020535E-2
8 18 2.1995399080297247E-2
8 19 2.158662695208577E-2
8 20 2.116336053545101E-2
8 21 2.0726754424212696E-2
8 22 2.0277981351184672E-2
8 23 1.9818227004207115E-2
8 24 1.9348684883582833E-2
8 25 1.8870551231581593E-2
8 26 1.838502006349974E-2
8 27 1.7893278328371308E-2
8 28 1.7396501225839002E-2
8 29 1.6895847703927967E-2
8 30 1.63924561605427E-2
8 31 1.5887440369449203E-2
8 32 1.5381885649332804E-2
8 33 1.4876845292260209E-2
8 34 1.4373337265545051E-2
8 35 1.3872341198643003E-2
8 36 1.3374795664308277E-2
8 37 1.2881595760850417E-2
8 38 1.2393590999960583E-2
8 39 1.191158350225087E-2
8 40 1.1436326500387986E-2
8 41 1.0968523147522625E-2
8 42 1.0508825626634563E-2
8 43 1.0057834554446393E-2
8 44 9.616098671719383E-3
8 45 9.18411481004479E-3
8 46 8.762328123693243E-3
8 47 8.351132573691132E-3
8 48 7.950871650062653E-3
8 49 7.561839317113236E-3
8 50 7.184281165736902E-3
8 51 6.818395756007084E-3
8 52 6.464336132756354E-3
8 53 6.122211496462463E-3
8 54 5.792089011531602E-3
8 55 5.473995733999164E-3
8 56 5.167920640746106E-3
8 57 4.8738167425473765E-3
8 58 4.591603263618243E-3
8 59 4.321167870794792E-3
8 60 4.062368936065576E-3
8 61 3.815037816851057E-3
8 62 3.5789811391944704E-3
8 63 3.3539830698701197E-3
8 64 3.139807564320959E-3
8 65 2.9362005782946872E-3
8 66 2.7428922320447587E-3
8 67 2.5595989169882438E-3
8 68 2.386025335755423E-3
8 69 2.221866467615715E-3
8 70 2.0668094523112798E-3
8 71 1.9205353863639804E-3
8 72 1.7827210269349327E-3
8 73 1.6530403993007595E-3
8 74 1.5311663049600167E-3
8 75 1.416771728290868E-3
8 76 1.3095311405417205E-3
8 77 1.2091217007457094E-3
8 78 1.1152243539040091E-3
8 79 1.0275248274791695E-3
8 80 9.457145278759418E-4
8 81 8.694913391621643E-4
8 82 7.985603267955625E-4
8 83 7.326343495739438E-4
8 84 6.714345834168858E-4
8 85 6.14690960917894E-4
8 86 5.621425308788996E-4
8 87 5.135377422560518E-4
8 88 4.686346571096382E-4
8 89 4.27201097264494E-4
8 90 3.8901472945363706E-4
8 91 3.5386309374042866E-4
8 92 3.215435799968481E-4
8 93 2.404098549935424E-4
8 94 2.186222153105597E-4
8 95 1.9858834912484408E-4
8 96 1.801900023241393E-4
8 97 1.6331462079362345E-4
8 98 1.478552988261544E-4
8 99 1.3371070247100844E-4
8 100 1.2078497065307907E-4
8 101 1.0898759679241744E-4
8 102 9.8233293538506E-5
8 103 8.844184310713185E-5
8 104 7.953793557242816E-5
8 105 7.145099732471724E-5
8 106 6.41150117582164E-5
8 107 5.746833410330014E-5
8 108 5.1453502167554E-5
9 1 2.5568454826173884E-2
9 2 2.5542339336406962E-2
9 3 2.5490187946787972E-2
9 4 2.54121594353852E-2
9 5 2.5308490967716334E-2
9 6 2.5179496902714475E-2
9 7 2.5025567213720117E-2
9 8 2.4847165535524227E-2
9 9 2.4644826851058135E-2
9 10 2.441915483377622E-2
9 11 2.4170818864085487E-2
9 12 2.3900550740322768E-2
9 13 2.360914110674699E-2
9 14 2.3297435622785422E-2
9 15 2.296633089933388E-2
9 16 2.2616770229250904E-2
9 17 2.224973914029454E-2
9 18 2.1866260799620715E-2
9 19 2.146739129958973E-2
9 20 2.105421485500953E-2
9 21 2.0627838942081683E-2
9 22 2.018938940921052E-2
9 23 1.974000558949341E-2
9 24 1.9280835444136647E-2
9 25 1.8813030765247745E-2
9 26 1.833774246545088E-2
9 27 1.7856115980572122E-2
9 28 1.7369286810259274E-2
9 29 1.687837621985376E-2
9 30 1.638448712513712E-2
9 31 1.588870017975036E-2
9 32 1.5392070083150512E-2
9 33 1.4895622124944868E-2
9 34 1.4400348979350521E-2
9 35 1.3907207761384514E-2
9 36 1.341711735421974E-2
9 37 1.2930956014962757E-2
9 38 1.2449559263942131E-2
9 39 1.1973718060458452E-2
9 40 1.1504177265857713E-2
9 41 1.1041634392765277E-2
9 42 1.0586738637374008E-2
9 43 1.0140090189831414E-2
9 44 9.702239816030031E-3
9 45 9.27368870248409E-3
9 46 8.854888554483471E-3
9 47 8.446241936361346E-3
9 48 8.048102841501172E-3
9 49 7.66077747864659E-3
9 50 7.28452526016762E-3
9 51 6.919559977179617E-3
9 52 6.566051145807984E-3
9 53 6.224125508439888E-3
9 54 5.893868673501295E-3
9 55 5.5753268771392625E-3
9 56 5.268508850170086E-3
9 57 4.973387773766861E-3
9 58 4.689903307597941E-3
9 59 4.417963674481939E-3
9 60 4.1574477860863495E-3
9 61 3.90820739475579E-3
9 62 3.6700692572020155E-3
9 63 3.442837296510919E-3
9 64 3.2262947497107503E-3
9 65 3.0202062889903743E-3
9 66 2.824320105545529E-3
9 67 2.638369945954523E-3
9 68 2.462077091932182E-3
9 69 2.2951522752724485E-3
9 70 2.13729752075632E-3
9 71 1.9882079107640103E-3
9 72 1.8475732662800047E-3
9 73 1.7150797399094527E-3
9 74 1.590411317427173E-3
9 75 1.4732512252501632E-3
9 76 1.3632832420554962E-3
9 77 1.2601929135530505E-3
9 78 1.1636686701627212E-3
9 79 1.0734028480353108E-3
9 80 9.890926144927492E-4
9 81 9.104407995447212E-4
9 82 8.371566356641793E-4
9 83 7.689564084729475E-4
9 84 7.055640214008685E-4
9 85 6.467114777382948E-4
9 86 5.921392838033209E-4
9 87 5.41596777193614E-4
9 88 4.948423842899739E-4
9 89 4.5164381132722356E-4
9 90 4.1177817345028225E-4
9 91 3.7503206623221993E-4
9 92 2.8974808198221224E-4
9 93 2.64075245893548E-4
9 94 2.404098549935424E-4
9 95 2.186222153105597E-4
9 96 1.9858834912484408E-4
9 97 1.801900023241393E-4
9 98 1.6331462079362345E-4
9 99 1.478552988261544E-4
9 100 1.3371070247100844E-4
9 101 1.2078497065307907E-4
9 102 1.0898759679241744E-4
9 103 9.8233293538506E-5
9 104 8.844184310713185E-5
9 105 7.953793557242816E-5
9 106 7.145099732471724E-5
9 107 6.41150117582164E-5
9 108 5.746833410330014E-5
9 109 5.1453502167554E-5
10 1 2.5314114766176593E-2
10 2 2.5288820978638937E-2
10 3 2.523830857226824E-2
10 4 2.5162727515991138E-2
10 5 2.506230184448819E-2
10 6 2.4937328562712927E-2
10 7 2.4788176196803895E-2
10 8 2.4615283001165063E-2
10 9 2.441915483377622E-2
10 10 2.4200362713978563E-2
10 11 2.39595400790431E-2
10 12 2.369737975775418E-2
10 13 2.3414630681011708E-2
10 14 2.3112094351059077E-2
10 15 2.2790621092367867E-2
10 16 2.245110610844358E-2
10 17 2.2094485369851084E-2
10 18 2.172173135958702E-2
10 19 2.133384870254448E-2
10 20 2.0931869706220404E-2
10 21 2.051684984000736E-2
10 22 2.0089863180390424E-2
10 23 1.9651997849140058E-2
10 24 1.9204351471158322E-2
10 25 1.874802667800593E-2
10 26 1.828412668232013E-2
10 27 1.781375094733885E-2
10 28 1.733799097458688E-2
10 29 1.6857926231468427E-2
10 30 1.6374620239061423E-2
10 31 1.5889116838838424E-2
10 32 1.5402436655362426E-2
10 33 1.4915573770240824E-2
10 34 1.4429492620784332E-2
10 35 1.394512513492726E-2
10 36 1.3463368112038993E-2
10 37 1.2985080857311454E-2
10 38 1.2511083075460627E-2
10 39 1.2042153027548973E-2
10 40 1.1579025952835744E-2
10 41 1.1122392755709096E-2
10 42 1.0672898955962129E-2
10 43 1.0231143898957646E-2
10 44 9.79768022059612E-3
10 45 9.373013560468713E-3
10 46 8.957602515152195E-3
10 47 8.55185882229351E-3
10 48 8.156147764945283E-3
10 49 7.770788784555556E-3
10 50 7.396056290089305E-3
10 51 7.03218064996852E-3
10 52 6.6793493528631495E-3
10 53 6.337708322846815E-3
10 54 6.007363374047548E-3
10 55 5.688381789672217E-3
10 56 5.380794010160017E-3
10 57 5.08459541522065E-3
10 58 4.799748184630555E-3
10 59 4.526183222889498E-3
10 60 4.263802133172152E-3
10 61 4.012479226437308E-3
10 62 3.772063552072238E-3
10 63 3.542380937042647E-3
10 64 3.3232360211803338E-3
10 65 3.114414276961592E-3
10 66 2.9156840029001384E-3
10 67 2.726798280489467E-3
10 68 2.5474968854715483E-3
10 69 2.3775081450727866E-3
10 70 2.216550733725179E-3
10 71 2.064335400672344E-3
10 72 1.9205666237385305E-3
10 73 1.7849441844064182E-3
10 74 1.6571646601995992E-3
10 75 1.5369228311918012E-3
10 76 1.4239129982614933E-3
10 77 1.3178302114725078E-3
10 78 1.2183714076843522E-3
10 79 1.1252364571763007E-3
10 80 1.0381291197040902E-3
10 81 9.567579109947642E-4
10 82 8.808368812221062E-4
10 83 8.10086307491104E-4
10 84 7.442333027943565E-4
10 85 6.830123442862954E-4
10 86 6.261657240530092E-4
10 87 5.734439258372431E-4
10 88 5.246059314111994E-4
10 89 4.7941946047576215E-4
10 90 4.376611481058064E-4
10 91 3.4766316169206583E-4
10 92 3.175637321289198E-4
10 93 2.8974808198221224E-4
10 94 2.64075245893548E-4
10 95 2.404098549935424E-4
10 96 2.186222153105597E-4
10 97 1.9858834912484408E-4
10 98 1.801900023241393E-4
10 99 1.6331462079362345E-4
10 100 1.478552988261544E-4
10 101 1.3371070247100844E-4
10 102 1.2078497065307907E-4
10 103 1.0898759679241744E-4
10 104 9.8233293538506E-5
10 105 8.844184310713185E-5
10 106 7.953793557242816E-5
10 107 7.145099732471724E-5
10 108 6.41150117582164E-5
10 109 5.746833410330014E-5
10 110 5.1453502167554E-5
11 1 2.5034480918641643E-2
11 2 2.5010084002037872E-2
11 3 2.49613605478421E-2
11 4 2.4888450981371227E-2
11 5 2.4791565110987727E-2
11 6 2.467098113857761E-2
11 7 2.4527044350157873E-2
11 8 2.4360165495055888E-2
11 9 2.4170818864085487E-2
11 10 2.39595400790431E-2
11 11 2.3726923607647256E-2
11 12 2.3473620019732036E-2
11 13 2.3200333002066267E-2
11 14 2.2907816150594153E-2
11 15 2.2596869560168775E-2
11 16 2.2268336232968047E-2
11 17 2.192309832773606E-2
11 18 2.156207327277485E-2
11 19 2.1186209766217698E-2
11 20 2.0796483687542305E-2
11 21 2.0393893944529146E-2
11 22 1.997945827993689E-2
11 23 1.9554209062055336E-2
11 24 1.9119189083009344E-2
11 25 1.867544738823071E-2
11 26 1.8224035159893903E-2
11 27 1.7766001676334887E-2
11 28 1.7302390368548E-2
11 29 1.6834234993794543E-2
11 30 1.6362555945169735E-2
11 31 1.5888356714673486E-2
11 32 1.5412620525928736E-2
11 33 1.4936307151201889E-2
11 34 1.4460349925817562E-2
11 35 1.3985652971438813E-2
11 36 1.3513088638018974E-2
11 37 1.3043495172536862E-2
11 38 1.2577674620918298E-2
11 39 1.2116390967837915E-2
11 40 1.1660368517400356E-2
11 41 1.1210290516032595E-2
11 42 1.0766798017292734E-2
11 43 1.0330488986726836E-2
11 44 9.901917643396327E-3
11 45 9.481594033264226E-3
11 46 9.069983828278751E-3
11 47 8.667508343736132E-3
11 48 8.274544765347894E-3
11 49 7.891426576387998E-3
11 50 7.5184441743564555E-3
11 51 7.155845665772837E-3
11 52 6.803837827007352E-3
11 53 6.4625872184708106E-3
11 54 6.132221439017737E-3
11 55 5.812830507068303E-3
11 56 5.504468354722781E-3
11 57 5.207154421023713E-3
11 58 4.920875330512208E-3
11 59 4.645586643320769E-3
11 60 4.381214663240456E-3
11 61 4.1276582904886E-3
11 62 3.884790906277939E-3
11 63 3.6524622767416534E-3
11 64 3.430500464293488E-3
11 65 3.2187137350900984E-3
11 66 3.01689245190553E-3
11 67 2.824810942417164E-3
11 68 2.6422293336300718E-3
11 69 2.4688953439242793E-3
11 70 2.3045460249888107E-3
11 71 2.1489094466996994E-3
11 72 2.0017063187987576E-3
11 73 1.862651544028677E-3
11 74 1.7314556981710464E-3
11 75 1.6078264332109293E-3
11 76 1.4914698006088128E-3
11 77 1.382091492392795E-3
11 78 1.2793979984860875E-3
11 79 1.1830976793531316E-3
11 80 1.0929017536783158E-3
11 81 1.0085252013814752E-3
11 82 9.296875828216889E-4
11 83 8.561137755435152E-4
11 84 7.875346303765309E-4
11 85 7.236875491090709E-4
11 86 6.643169863202176E-4
11 87 6.091748782705946E-4
11 88 5.580210020230313E-4
11 89 5.106232681897823E-4
11 90 4.153044487175457E-4
11 91 3.801928140025063E-4
11 92 3.4766316169206583E-4
11 93 3.175637321289198E-4
11 94 2.8974808198221224E-4
11 95 2.64075245893548E-4
11 96 2.404098549935424E-4
11 97 2.186222153105597E-4
11 98 1.9858834912484408E-4
11 99 1.801900023241393E-4
11 100 1.6331462079362345E-4
11 101 1.478552988261544E-4
11 102 1.3371070247100844E-4
11 103 1.2078497065307907E-4
11 104 1.0898759679241744E-4
11 105 9.8233293538506E-5
11 106 8.844184310713185E-5
11 107 7.953793557242816E-5
11 108 7.145099732471724E-5
11 109 6.41150117582164E-5
11 110 5.746833410330014E-5
11 111 5.1453502167554E-5
12 1 2.4730450154502922E-2
12 2 2.470702048784481E-2
12 3 2.4660226411140858E-2
12 4 2.4590198142838693E-2
12 5 2.449713027546065E-2
12 6 2.4381280898432674E-2
12 7 2.4242970436829603E-2
12 8 2.4082580213078297E-2
12 9 2.3900550740322768E-2
12 10 2.369737975775418E-2
12 11 2.3473620019732036E-2
12 12 2.322987685195934E-2
12 13 2.296680548931448E-2
12 14 2.2685108211175965E-2
12 15 2.2385531291194333E-2
12 16 2.2068861779461255E-2
12 17 2.173592413589181E-2
12 18 2.1387576734366733E-2
12 19 2.1024708257772674E-2
12 20 2.0648234004526436E-2
12 21 2.025909212747184E-2
12 22 1.9858239826194057E-2
12 23 1.9446649513806178E-2
12 24 1.902530497912772E-2
12 25 1.859519756489731E-2
12 26 1.8157322382245468E-2
12 27 1.7712674581103052E-2
12 28 1.726224569554255E-2
12 29 1.6807020082249307E-2
12 30 1.6347971469406607E-2
12 31 1.5886059632260044E-2
12 32 1.542222721051295E-2
12 33 1.4957396681505475E-2
12 34 1.4492467501856367E-2
12 35 1.4028313428909277E-2
12 36 1.3565780031936682E-2
12 37 1.3105682401625816E-2
12 38 1.2648803064914154E-2
12 39 1.219589011076968E-2
12 40 1.1747655531034767E-2
12 41 1.1304773778983994E-2
12 42 1.0867880546797302E-2
12 43 1.0437571761731415E-2
12 44 1.001440279939494E-2
12 45 9.598887911206368E-3
12 46 9.191499861848163E-3
12 47 8.792669771333136E-3
12 48 8.402787155178847E-3
12 49 8.022200155148795E-3
12 50 7.65121595207153E-3
12 51 7.290101351395287E-3
12 52 6.939083531380498E-3
12 53 6.5983509431782736E-3
12 54 6.268054351491565E-3
12 55 5.9483080040683015E-3
12 56 5.639190917931998E-3
12 57 5.340748270014338E-3
12 58 5.052992879713926E-3
12 59 4.775906770863166E-3
12 60 4.509442800637217E-3
12 61 4.2535263430810875E-3
12 62 4.008057015158015E-3
12 63 3.7729104335287806E-3
12 64 3.5479399906514176E-3
12 65 3.3329786392374263E-3
12 66 3.127840674607124E-3
12 67 2.932323505046135E-3
12 68 2.746209400869895E-3
12 69 2.569267213546096E-3
12 70 2.4012540568987993E-3
12 71 2.2419169431152244E-3
12 72 2.0909943669898457E-3
12 73 1.9482178325633858E-3
12 74 1.813313317040007E-3
12 75 1.686002667588058E-3
12 76 1.566004927342231E-3
12 77 1.4530375876223925E-3
12 78 1.3468177640615744E-3
12 79 1.2470632949881026E-3
12 80 1.1534937610305166E-3
12 81 1.0658314255052406E-3
12 82 9.838020957028842E-4
12 83 9.071359057071159E-4
12 84 8.355680218582296E-4
12 85 7.688392724104531E-4
12 86 7.066967033266563E-4
12 87 6.488940625060058E-4
12 88 5.951922150491775E-4
12 89 4.939059902648149E-4
12 90 4.531549340864822E-4
12 91 4.153044487175457E-4
12 92 3.801928140025063E-4
12 93 3.4766316169206583E-4
12 94 3.175637321289198E-4
12 95 2.8974808198221224E-4
12 96 2.64075245893548E-4
12 97 2.404098549935424E-4
12 98 2.186222153105597E-4
12 99 1.9858834912484408E-4
12 100 1.801900023241393E-4
12 101 1.6331462079362345E-4
12 102 1.478552988261544E-4
12 103 1.3371070247100844E-4
12 104 1.2078497065307907E-4
12 105 1.0898759679241744E-4
12 106 9.8233293538506E-5
12 107 8.844184310713185E-5
12 108 7.953793557242816E-5
12 109 7.145099732471724E-5
12 110 6.41150117582164E-5
12 111 5.746833410330014E-5
12 112 5.1453502167554E-5
13 1 2.4402989723706088E-2
13 2 2.438059256360591E-2
13 3 2.4335858082841395E-2
13 4 2.426890570523028E-2
13 5 2.417991393028364E-2
13 6 2.4069119573712643E-2
13 7 2.3936816761353102E-2
13 8 2.3783355682096483E-2
13 9 2.360914110674699E-2
13 10 2.3414630681011708E-2
13 11 2.3200333002066267E-2
13 12 2.296680548931448E-2
13 13 2.271465206106904E-2
13 14 2.2444520629914665E-2
13 15 2.2157100430468445E-2
13 16 2.1853119194118094E-2
13 17 2.153334018609193E-2
13 18 2.1198559120889637E-2
13 19 2.0849600972675474E-2
13 20 2.048731669770221E-2
13 21 2.0112579886191348E-2
13 22 1.9726283361341128E-2
13 23 1.932933574326644E-2
13 24 1.8922657995694148E-2
13 25 1.850717997314248E-2
13 26 1.8083836986106463E-2
13 27 1.7653566401453127E-2
13 28 1.7217304294804357E-2
13 29 1.6775982171154613E-2
13 30 1.633052376933962E-2
13 31 1.588184196524607E-2
13 32 1.5430835787836782E-2
13 33 1.4978387561167428E-2
13 34 1.452536018459719E-2
13 35 1.4072594562354237E-2
13 36 1.362090719251612E-2
13 37 1.317108792431397E-2
13 38 1.2723897891477199E-2
13 39 1.2280067628111005E-2
13 40 1.1840295372353319E-2
13 41 1.1405245561799476E-2
13 42 1.0975547523422675E-2
13 43 1.0551794359465407E-2
13 44 1.0134542029541456E-2
13 45 9.724308627978876E-3
13 46 9.321573854260752E-3
13 47 8.926778673290878E-3
13 48 8.540325161134036E-3
13 49 8.16257653086238E-3
13 50 7.793857332187627E-3
13 51 7.4344538176791914E-3
13 52 7.084614467566209E-3
13 53 6.744550664401253E-3
13 54 6.414437508228838E-3
13 55 6.09441476235526E-3
13 56 5.784587919359858E-3
13 57 5.4850293766222115E-3
13 58 5.195779710365296E-3
13 59 4.9168490370303745E-3
13 60 4.648218450703797E-3
13 61 4.389841525306633E-3
13 62 4.141645870331928E-3
13 63 3.90353472906778E-3
13 64 3.6753886084727187E-3
13 65 3.457066930168443E-3
13 66 3.248409692378031E-3
13 67 3.049239133059855E-3
13 68 2.859361384962159E-3
13 69 2.678568113844415E-3
13 70 2.5066381316725095E-3
13 71 2.3433389771889456E-3
13 72 2.1884284568798526E-3
13 73 2.0416561400011758E-3
13 74 1.9027648019803974E-3
13 75 1.7714918111713088E-3
13 76 1.6475704546016377E-3
13 77 1.5307311990110104E-3
13 78 1.4207028841244076E-3
13 79 1.3172138457389594E-3
13 80 1.2199929668150272E-3
13 81 1.1287706553519256E-3
13 82 1.0432797483906674E-3
13 83 9.632563420175986E-4
13 84 8.884405477410381E-4
13 85 8.18577176075815E-4
13 86 7.534163485962413E-4
13 87 6.927140401052392E-4
13 88 5.847790507477894E-4
13 89 5.377238809458774E-4
13 90 4.939059902648149E-4
13 91 4.531549340864822E-4
13 92 4.153044487175457E-4
13 93 3.801928140025063E-4
13 94 3.4766316169206583E-4
13 95 3.175637321289198E-4
13 96 2.8974808198221224E-4
13 97 2.64075245893548E-4
13 98 2.404098549935424E-4
13 99 2.186222153105597E-4
13 100 1.9858834912484408E-4
13 101 1.801900023241393E-4
13 102 1.6331462079362345E-4
13 103 1.478552988261544E-4
13 104 1.3371070247100844E-4
13 105 1.2078497065307907E-4
13 106 1.0898759679241744E-4
13 107 9.8233293538506E-5
13 108 8.844184310713185E-5
13 109 7.953793557242816E-5
13 110 7.145099732471724E-5
13 111 6.41150117582164E-5
13 112 5.746833410330014E-5
13 113 5.1453502167554E-5
14 1 2.4053132132809074E-2
14 2 2.4031827318702674E-2
14 3 2.398927185769533E-2
14 4 2.3925573870286345E-2
14 5 2.3840895003482274E-2
14 6 2.3735449793204064E-2
14 7 2.360950481897952E-2
14 8 2.3463377655021794E-2
14 9 2.3297435622785422E-2
14 10 2.3112094351059077E-2
14 11 2.2907816150594153E-2
14 12 2.2685108211175965E-2
14 13 2.2444520629914665E-2
14 14 2.218664428036152E-2
14 15 2.1912108532838426E-2
14 16 2.162157883709912E-2
14 17 2.1315754179115923E-2
14 18 2.099536442440067E-2
14 19 2.066116756081917E-2
14 20 2.0313946854340386E-2
14 21 1.9954507931571497E-2
14 22 1.9583675803263735E-2
14 23 1.9202291843229094E-2
14 24 1.88112107372812E-2
14 25 1.8411297416903297E-2
14 26 1.8003423992350137E-2
14 27 1.758846669980777E-2
14 28 1.716730287706519E-2
14 29 1.6740807981894673E-2
14 30 1.6309852666994078E-2
14 31 1.5875299924916358E-2
14 32 1.5438002315900552E-2
14 33 1.4998799290928497E-2
14 34 1.4558514621665297E-2
14 35 1.4117953948204032E-2
14 36 1.3677902454731529E-2
14 37 1.3239122682367502E-2
14 38 1.2802352487510823E-2
14 39 1.2368303153060837E-2
14 40 1.1937657658875712E-2
14 41 1.1511069116792E-2
14 42 1.108915937446758E-2
14 43 1.0672517791232714E-2
14 44 1.0261700188049344E-2
14 45 9.85722797259584E-3
14 46 9.459587439421591E-3
14 47 9.069229244061651E-3
14 48 8.68656804897441E-3
14 49 8.311982338172867E-3
14 50 7.94581439647004E-3
14 51 7.588370448358549E-3
14 52 7.239920950699946E-3
14 53 6.900701032616773E-3
14 54 6.5709110752649475E-3
14 55 6.250717423520395E-3
14 56 5.940253221045474E-3
14 57 5.639619359710817E-3
14 58 5.34888553393866E-3
14 59 5.068091390205928E-3
14 60 4.797247761699789E-3
14 61 4.536337977954638E-3
14 62 4.285319239216397E-3
14 63 4.044124045275867E-3
14 64 3.8126616685848053E-3
14 65 3.5908196616133235E-3
14 66 3.378465388621174E-3
14 67 3.175447572294055E-3
14 68 2.981597846034375E-3
14 69 2.7967323030885726E-3
14 70 2.620653034134561E-3
14 71 2.4531496454371377E-3
14 72 2.294000750200276E-3
14 73 2.142975426296864E-3
14 74 1.9998346341324777E-3
14 75 1.864332588993977E-3
14 76 1.7362180828400882E-3
14 77 1.6152357511036528E-3
14 78 1.5011272806883954E-3
14 79 1.3936325559513322E-3
14 80 1.2924907400603683E-3
14 81 1.1974412897004542E-3
14 82 1.10822490166664E-3
14 83 1.0245843904245896E-3
14 84 9.46265496235184E-4
14 85 8.730176239268262E-4
14 86 8.045945128543979E-4
14 87 6.893013368380249E-4
14 88 6.352457060019391E-4
14 89 5.847790507477894E-4
14 90 5.377238809458774E-4
14 91 4.939059902648149E-4
14 92 4.531549340864822E-4
14 93 4.153044487175457E-4
14 94 3.801928140025063E-4
14 95 3.4766316169206583E-4
14 96 3.175637321289198E-4
14 97 2.8974808198221224E-4
14 98 2.64075245893548E-4
14 99 2.404098549935424E-4
14 100 2.186222153105597E-4
14 101 1.9858834912484408E-4
14 102 1.801900023241393E-4
14 103 1.6331462079362345E-4
14 104 1.478552988261544E-4
14 105 1.3371070247100844E-4
14 106 1.2078497065307907E-4
14 107 1.0898759679241744E-4
14 108 9.8233293538506E-5
14 109 8.844184310713185E-5
14 110 7.953793557242816E-5
14 111 7.145099732471724E-5
14 112 6.41150117582164E-5
14 113 5.746833410330014E-5
14 114 5.1453502167554E-5
15 1 2.3681969727805664E-2
15 2 2.3661811426898497E-2
15 3 2.3621543106147624E-2
15 4 2.3561261155947325E-2
15 5 2.3481109733206773E-2
15 6 2.338128024874915E-2
15 7 2.3262010686872756E-2
15 8 2.3123584759668463E-2
15 9 2.296633089933388E-2
15 10 2.2790621092367867E-2
15 11 2.2596869560168775E-2
15 12 2.2385531291194333E-2
15 13 2.2157100430468445E-2
15 14 2.1912108532838426E-2
15 15 2.1651122686992194E-2
15 16 2.1374743517836255E-2
15 17 2.108360307540786E-2
15 18 2.0778362619045455E-2
15 19 2.045971030606558E-2
15 20 2.0128358794688456E-2
15 21 1.978504277141277E-2
15 22 1.9430516413459463E-2
15 23 1.9065550797278494E-2
15 24 1.8690931264438247E-2
15 25 1.830745475648886E-2
15 26 1.7915927130604605E-2
15 27 1.7517160467962204E-2
15 28 1.711197038689808E-2
15 29 1.6701173372904655E-2
15 30 1.6285584137471408E-2
15 31 1.5866013017648558E-2
15 32 1.5443263428008072E-2
15 33 1.5018129376398421E-2
15 34 1.4591393054535341E-2
15 35 1.416382251404259E-2
15 36 1.3736169438055414E-2
15 37 1.330916701792838E-2
15 38 1.288352794395114E-2
15 39 1.2459942518275532E-2
15 40 1.2039076897499518E-2
15 41 1.1621571471543817E-2
15 42 1.120803938460204E-2
15 43 1.0799065203051517E-2
15 44 1.0395203734287099E-2
15 45 9.996978999492059E-3
15 46 9.60488336239674E-3
15 47 9.219376815105125E-3
15 48 8.840886421100482E-3
15 49 8.46980591458207E-3
15 50 8.10649545434379E-3
15 51 7.7512815294907954E-3
15 52 7.404457013409113E-3
15 53 7.066281361563641E-3
15 54 6.73698094790833E-3
15 55 6.416749533955162E-3
15 56 6.105748863871353E-3
15 57 5.804109378361922E-3
15 58 5.511931039551448E-3
15 59 5.229284258608075E-3
15 60 4.9562109174567685E-3
15 61 4.6927254756095535E-3
15 62 4.4388161528985766E-3
15 63 4.194446178733422E-3
15 64 3.959555098416472E-3
15 65 3.7340601270375363E-3
15 66 3.5178575415293475E-3
15 67 3.310824101595694E-3
15 68 3.112818490420469E-3
15 69 2.923682766324521E-3
15 70 2.7432438168532008E-3
15 71 2.5713148071458917E-3
15 72 2.4076966148541493E-3
15 73 2.2521792443315775E-3
15 74 2.104543213310444E-3
15 75 1.9645609058012567E-3
15 76 1.8319978854959922E-3
15 77 1.7066141645174732E-3
15 78 1.5881654229305774E-3
15 79 1.4764041750098043E-3
15 80 1.3710808788367592E-3
15 81 1.2719449863750829E-3
15 82 1.1787459317343762E-3
15 83 1.0912340558842254E-3
15 84 1.009161466610378E-3
15 85 9.322828330137669E-4
15 86 8.089026121686099E-4
15 87 7.471261787510978E-4
15 88 6.893013368380249E-4
15 89 6.352457060019391E-4
15 90 5.847790507477894E-4
15 91 5.377238809458774E-4
15 92 4.939059902648149E-4
15 93 4.531549340864822E-4
15 94 4.153044487175457E-4
15 95 3.801928140025063E-4
15 96 3.4766316169206583E-4
15 97 3.175637321289198E-4
15 98 2.8974808198221224E-4
15 99 2.64075245893548E-4
15 100 2.404098549935424E-4
15 101 2.186222153105597E-4
15 102 1.9858834912484408E-4
15 103 1.801900023241393E-4
15 104 1.6331462079362345E-4
15 105 1.478552988261544E-4
15 106 1.3371070247100844E-4
15 107 1.2078497065307907E-4
15 108 1.0898759679241744E-4
15 109 9.8233293538506E-5
15 110 8.844184310713185E-5
15 111 7.953793557242816E-5
15 112 7.145099732471724E-5
15 113 6.41150117582164E-5
15 114 5.746833410330014E-5
15 115 5.1453502167554E-5
16 1 2.3290649021895087E-2
16 2 2.3271685515250613E-2
16 3 2.323380072515049E-2
16 4 2.3177078969068052E-2
16 5 2.3101646401214204E-2
16 6 2.3007670626875462E-2
16 7 2.2895360189438094E-2
16 8 2.2764963931184844E-2
16 9 2.2616770229250904E-2
16 10 2.245110610844358E-2
16 11 2.2268336232968047E-2
16 12 2.2068861779461255E-2
16 13 2.1853119194118094E-2
16 14 2.162157883709912E-2
16 15 2.1374743517836255E-2
16 16 2.1113146925300936E-2
16 17 2.0837351957765787E-2
16 18 2.054794895707277E-2
16 19 2.0245553852914742E-2
16 20 1.993080622313797E-2
16 21 1.9604367276576426E-2
16 22 1.926691776542753E-2
16 23 1.8919155834668615E-2
16 24 1.8561794816486156E-2
16 25 1.8195560978139555E-2
16 26 1.7821191232100925E-2
16 27 1.7439430817694918E-2
16 28 1.7051030963801665E-2
16 29 1.665674654247482E-2
16 30 1.6257333723559135E-2
16 31 1.5853547640563122E-2
16 32 1.5446140078146427E-2
16 33 1.5035857191614915E-2
16 34 1.462343726877571E-2
16 35 1.4209608544386724E-2
16 36 1.379508707723944E-2
16 37 1.3380574699639053E-2
16 38 1.2966757048693087E-2
16 39 1.2554301688389821E-2
16 40 1.2143856330943635E-2
16 41 1.1736047165309557E-2
16 42 1.1331477300127754E-2
16 43 1.0930725327656425E-2
16 44 1.0534344014494232E-2
16 45 1.0142859124088E-2
16 46 9.756768375175591E-3
16 47 9.37654053943557E-3
16 48 9.002614680712786E-3
16 49 8.635399537271405E-3
16 50 8.275273047602826E-3
16 51 7.922582019394353E-3
16 52 7.57764194035449E-3
16 53 7.2407369287006695E-3
16 54 6.912119820253855E-3
16 55 6.592012388259289E-3
16 56 6.280605691271609E-3
16 57 5.978060543711985E-3
16 58 5.684508103031337E-3
16 59 5.400050566802289E-3
16 60 5.124761972517839E-3
16 61 4.858689092400707E-3
16 62 4.601852415126579E-3
16 63 4.354247206039182E-3
16 64 4.115844637186153E-3
16 65 3.8865929783324957E-3
16 66 3.6664188400120563E-3
16 67 3.4552284596557612E-3
16 68 3.2529090218858404E-3
16 69 3.059330004185097E-3
16 70 2.8743445393358516E-3
16 71 2.6977907862702124E-3
16 72 2.529493301277193E-3
16 73 2.369264401867729E-3
16 74 2.216905516000357E-3
16 75 2.072208509812459E-3
16 76 1.9349569874786419E-3
16 77 1.8049275573229168E-3
16 78 1.6818910588388821E-3
16 79 1.5656137458160044E-3
16 80 1.4558584213245189E-3
16 81 1.3523855208706812E-3
16 82 1.2549541405926681E-3
16 83 1.1633230079201645E-3
16 84 1.0772513926628083E-3
16 85 9.450464548521614E-4
16 86 8.748144989104668E-4
16 87 8.089026121686099E-4
16 88 7.471261787510978E-4
16 89 6.893013368380249E-4
16 90 6.352457060019391E-4
16 91 5.847790507477894E-4
16 92 5.377238809458774E-4
16 93 4.939059902648149E-4
16 94 4.531549340864822E-4
16 95 4.153044487175457E-4
16 96 3.801928140025063E-4
16 97 3.4766316169206583E-4
16 98 3.175637321289198E-4
16 99 2.8974808198221224E-4
16 100 2.64075245893548E-4
16 101 2.404098549935424E-4
16 102 2.186222153105597E-4
16 103 1.9858834912484408E-4
16 104 1.801900023241393E-4
16 105 1.6331462079362345E-4
16 106 1.478552988261544E-4
16 107 1.3371070247100844E-4
16 108 1.2078497065307907E-4
16 109 1.0898759679241744E-4
16 110 9.8233293538506E-5
16 111 8.844184310713185E-5
16 112 7.953793557242816E-5
16 113 7.145099732471724E-5
16 114 6.41150117582164E-5
16 115 5.746833410330014E-5
16 116 5.1453502167554E-5
17 1 2.2880364809340033E-2
17 2 2.286263832014708E-2
17 3 2.2827221378171038E-2
17 4 2.2774185970417367E-2
17 5 2.270363986273674E-2
17 6 2.2615726341903144E-2
17 7 2.251062387118755E-2
17 8 2.2388545659020535E-2
17 9 2.224973914029454E-2
17 10 2.2094485369851084E-2
17 11 2.192309832773606E-2
17 12 2.173592413589181E-2
17 13 2.153334018609193E-2
17 14 2.1315754179115923E-2
17 15 2.108360307540786E-2
17 16 2.0837351957765787E-2
17 17 2.0577492806965848E-2
17 18 2.030454319163507E-2
17 19 2.001904487414516E-2
17 20 1.972156233480271E-2
17 21 1.9412681217152727E-2
17 22 1.9093006697785575E-2
17 23 1.876316178463519E-2
17 24 1.8423785548369924E-2
17 25 1.807553129209822E-2
17 26 1.7719064665229864E-2
17 27 1.7355061727940387E-2
17 28 1.6984206973271656E-2
17 29 1.6607191314456145E-2
17 30 1.6224710045566533E-2
17 31 1.5837460784057004E-2
17 32 1.5446141404169967E-2
17 33 1.5051447970523716E-2
17 34 1.4654072681466297E-2
17 35 1.4254701831972562E-2
17 36 1.3854013805970362E-2
17 37 1.3452677108004147E-2
17 38 1.3051348444077734E-2
17 39 1.2650670861361192E-2
17 40 1.225127195619986E-2
17 41 1.1853762159527572E-2
17 42 1.1458733108363942E-2
17 43 1.1066756111570469E-2
17 44 1.0678380717457324E-2
17 45 1.0294133390177764E-2
17 46 9.91451630112683E-3
17 47 9.540006240783251E-3
17 48 9.171053655606493E-3
17 49 8.808081813733541E-3
17 50 8.451486102321968E-3
17 51 8.10163345846652E-3
17 52 7.758861934685911E-3
17 53 7.423480399044704E-3
17 54 7.095768369051628E-3
17 55 6.7759759775703025E-3
17 56 6.46432406809992E-3
17 57 6.161004415941025E-3
17 58 5.866180070962825E-3
17 59 5.5799858169411016E-3
17 60 5.302528741746228E-3
17 61 5.0338889120348645E-3
17 62 4.774120145541312E-3
17 63 4.52325087357931E-3
17 64 4.281285085955206E-3
17 65 4.048203350160673E-3
17 66 3.8239638964589094E-3
17 67 3.6085037603022026E-3
17 68 3.4017399734203894E-3
17 69 3.203570794897171E-3
17 70 3.0138769736021086E-3
17 71 2.832523033467153E-3
17 72 2.659358573283792E-3
17 73 2.4942195729459726E-3
17 74 2.336929698369744E-3
17 75 2.187301597677742E-3
17 76 2.045138181639384E-3
17 77 1.9102338818000508E-3
17 78 1.7823758802083438E-3
17 79 1.6613453051535967E-3
17 80 1.5469183878499264E-3
17 81 1.4388675755421041E-3
17 82 1.3369625970564695E-3
17 83 1.240971477371251E-3
17 84 1.0992079961619481E-3
17 85 1.0197830585595082E-3
17 86 9.450464548521614E-4
17 87 8.748144989104668E-4
17 88 8.089026121686099E-4
17 89 7.471261787510978E-4
17 90 6.893013368380249E-4
17 91 6.352457060019391E-4
17 92 5.847790507477894E-4
17 93 5.377238809458774E-4
17 94 4.939059902648149E-4
17 95 4.531549340864822E-4
17 96 4.153044487175457E-4
17 97 3.801928140025063E-4
17 98 3.4766316169206583E-4
17 99 3.175637321289198E-4
17 100 2.8974808198221224E-4
17 101 2.64075245893548E-4
17 102 2.404098549935424E-4
17 103 2.186222153105597E-4
17 104 1.9858834912484408E-4
17 105 1.801900023241393E-4
17 106 1.6331462079362345E-4
17 107 1.478552988261544E-4
17 108 1.3371070247100844E-4
17 109 1.2078497065307907E-4
17 110 1.0898759679241744E-4
17 111 9.8233293538506E-5
17 112 8.844184310713185E-5
17 113 7.953793557242816E-5
17 114 7.145099732471724E-5
17 115 6.41150117582164E-5
17 116 5.746833410330014E-5
17 117 5.1453502167554E-5
18 1 2.2452354107592026E-2
18 2 2.243590067226046E-2
18 3 2.240302356541396E-2
18 4 2.2353782271839727E-2
18 5 2.228826591110631E-2
18 6 2.220659310704883E-2
18 7 2.210891181148559E-2
18 8 2.1995399080297247E-2
18 9 2.1866260799620715E-2
18 10 2.172173135958702E-2
18 11 2.156207327277485E-2
18 12 2.1387576734366733E-2
18 13 2.1198559120889637E-2
18 14 2.099536442440067E-2
18 15 2.0778362619045455E-2
18 16 2.054794895707277E-2
18 17 2.030454319163507E-2
18 18 2.004858872403823E-2
18 19 1.9780551673523043E-2
18 20 1.9500919868159917E-2
18 21 1.921020175601186E-2
18 22 1.890892523636039E-2
18 23 1.8597636411486883E-2
18 24 1.8276898260247254E-2
18 25 1.7947289235460233E-2
18 26 1.7609401787937684E-2
18 27 1.7263840820806602E-2
18 28 1.6911222078594867E-2
18 29 1.655217047636337E-2
18 30 1.6187318374954015E-2
18 31 1.581730380917338E-2
18 32 1.5442768676434293E-2
18 33 1.506435689402135E-2
18 34 1.4682712533720568E-2
18 35 1.4298477943049935E-2
18 36 1.391229186273727E-2
18 37 1.3524787550409043E-2
18 38 1.3136590920672252E-2
18 39 1.2748318711887772E-2
18 40 1.2360576689945129E-2
18 41 1.1973957899254244E-2
18 42 1.1589040970970287E-2
18 43 1.1206388498164842E-2
18 44 1.0826545487254001E-2
18 45 1.0450037894496155E-2
18 46 1.0077371255785426E-2
18 47 9.709029417297753E-3
18 48 9.345473373804007E-3
18 49 8.987140220657056E-3
18 50 8.634442224597236E-3
18 51 8.287766017613525E-3
18 52 7.947471917156734E-3
18 53 7.61389337503687E-3
18 54 7.287336556361152E-3
18 55 6.96808004889226E-3
18 56 6.656374702239718E-3
18 57 6.352443595350761E-3
18 58 6.056482129850789E-3
18 59 5.768658245906764E-3
18 60 5.489112756458127E-3
18 61 5.217959794886833E-3
18 62 4.9552873704875955E-3
18 63 4.701158025457336E-3
18 64 4.45560958655383E-3
18 65 4.218656004081619E-3
18 66 3.9902882704508195E-3
18 67 3.7704754102235376E-3
18 68 3.559165533313533E-3
18 69 3.356286942837401E-3
18 70 3.1617492890284723E-3
18 71 2.9754447606156883E-3
18 72 2.7972493051359325E-3
18 73 2.627023869785807E-3
18 74 2.4646156546233576E-3
18 75 2.309859370196669E-3
18 76 2.162578491999151E-3
18 77 2.0225865045248106E-3
18 78 1.8896881281147654E-3
18 79 1.7636805222422658E-3
18 80 1.644354459371182E-3
18 81 1.5314954640357147E-3
18 82 1.424884912320687E-3
18 83 1.2728475852982531E-3
18 84 1.183503143267951E-3
18 85 1.0992079961619481E-3
18 86 1.0197830585595082E-3
18 87 9.450464548521614E-4
18 88 8.748144989104668E-4
18 89 8.089026121686099E-4
18 90 7.471261787510978E-4
18 91 6.893013368380249E-4
18 92 6.352457060019391E-4
18 93 5.847790507477894E-4
18 94 5.377238809458774E-4
18 95 4.939059902648149E-4
18 96 4.531549340864822E-4
18 97 4.153044487175457E-4
18 98 3.801928140025063E-4
18 99 3.4766316169206583E-4
18 100 3.175637321289198E-4
18 101 2.8974808198221224E-4
18 102 2.64075245893548E-4
18 103 2.404098549935424E-4
18 104 2.186222153105597E-4
18 105 1.9858834912484408E-4
18 106 1.801900023241393E-4
18 107 1.6331462079362345E-4
18 108 1.478552988261544E-4
18 109 1.3371070247100844E-4
18 110 1.2078497065307907E-4
18 111 1.0898759679241744E-4
18 112 9.8233293538506E-5
18 113 8.844184310713185E-5
18 114 7.953793557242816E-5
18 115 7.145099732471724E-5
18 116 6.41150117582164E-5
18 117 5.746833410330014E-5
18 118 5.1453502167554E-5
19 1 2.2007889970512454E-2
19 2 2.1992739352858906E-2
19 3 2.1962461565929153E-2
19 4 2.1917103506102896E-2
19 5 2.1856735516151818E-2
19 6 2.178145138068875E-2
19 7 2.1691368316158526E-2
19 8 2.158662695208577E-2
19 9 2.146739129958973E-2
19 10 2.133384870254448E-2
19 11 2.1186209766217698E-2
19 12 2.1024708257772674E-2
19 13 2.0849600972675474E-2
19 14 2.066116756081917E-2
19 15 2.045971030606558E-2
19 16 2.0245553852914742E-2
19 17 2.001904487414516E-2
19 18 1.9780551673523043E-2
19 19 1.953046371805299E-2
19 20 1.9269191094732192E-2
19 21 1.899716388736758E-2
19 22 1.871483146971317E-2
19 23 1.8422661711972453E-2
19 24 1.8121140098577196E-2
19 25 1.781076875608672E-2
19 26 1.749206539103697E-2
19 27 1.716556213859216E-2
19 28 1.6831804323898317E-2
19 29 1.6491349139092736E-2
19 30 1.6144764239970213E-2
19 31 1.5792626267331307E-2
19 32 1.543551929902476E-2
19 33 1.5074033239631145E-2
19 34 1.4708762155604987E-2
19 35 1.4340302564485277E-2
19 36 1.3969251687488617E-2
19 37 1.3596205675405374E-2
19 38 1.3221757818219083E-2
19 39 1.2846496749256189E-2
19 40 1.2471004654942157E-2
19 41 1.2095855501387844E-2
19 42 1.1721613289055145E-2
19 43 1.134883034665382E-2
19 44 1.0978045675203673E-2
19 45 1.0609783352861661E-2
19 46 1.0244551010667078E-2
19 47 9.88283838880618E-3
19 48 9.525115982348316E-3
19 49 9.171833784667701E-3
19 50 8.823420135948614E-3
19 51 8.480280683287449E-3
19 52 8.142797457964484E-3
19 53 7.811328074473182E-3
19 54 7.486205054877501E-3
19 55 7.1677352810305675E-3
19 56 6.8561995761431006E-3
19 57 6.551852416149482E-3
19 58 6.2549217702947E-3
19 59 5.965609069367815E-3
19 60 5.684089299047369E-3
19 61 5.410511214910858E-3
19 62 5.144997674802857E-3
19 63 4.8876460834621155E-3
19 64 4.63852894358375E-3
19 65 4.397694506843976E-3
19 66 4.165167517846247E-3
19 67 3.94095004346215E-3
19 68 3.725022379640549E-3
19 69 3.5173440274448345E-3
19 70 3.3178547298509807E-3
19 71 3.1264755606972517E-3
19 72 2.9431100571177034E-3
19 73 2.7676453868133175E-3
19 74 2.599953541612732E-3
19 75 2.4398925489447667E-3
19 76 2.2873076930820958E-3
19 77 2.1420327383138652E-3
19 78 2.003891146558733E-3
19 79 1.8726972823323506E-3
19 80 1.748257598428054E-3
19 81 1.6303717961497649E-3
19 82 1.4673804522774983E-3
19 83 1.367416578217387E-3
19 84 1.2728475852982531E-3
19 85 1.183503143267951E-3
19 86 1.0992079961619481E-3
19 87 1.0197830585595082E-3
19 88 9.450464548521614E-4
19 89 8.748144989104668E-4
19 90 8.089026121686099E-4
19 91 7.471261787510978E-4
19 92 6.893013368380249E-4
19 93 6.352457060019391E-4
19 94 5.847790507477894E-4
19 95 5.377238809458774E-4
19 96 4.939059902648149E-4
19 97 4.531549340864822E-4
19 98 4.153044487175457E-4
19 99 3.801928140025063E-4
19 100 3.4766316169206583E-4
19 101 3.175637321289198E-4
19 102 2.8974808198221224E-4
19 103 2.64075245893548E-4
19 104 2.404098549935424E-4
19 105 2.186222153105597E-4
19 106 1.9858834912484408E-4
19 107 1.801900023241393E-4
19 108 1.6331462079362345E-4
19 109 1.478552988261544E-4
19 110 1.3371070247100844E-4
19 111 1.2078497065307907E-4
19 112 1.0898759679241744E-4
19 113 9.8233293538506E-5
19 114 8.844184310713185E-5
19 115 7.953793557242816E-5
19 116 7.145099732471724E-5
19 117 6.41150117582164E-5
19 118 5.746833410330014E-5
19 119 5.1453502167554E-5
20 1 2.154827521577933E-2
20 2 2.1534450864181147E-2
20 3 2.1506819293547846E-2
20 4 2.1465414810241237E-2
20 5 2.141028897568534E-2
20 6 2.134151072526151E-2
20 7 2.125916652128893E-2
20 8 2.116336053545101E-2
20 9 2.105421485500953E-2
20 10 2.0931869706220404E-2
20 11 2.0796483687542305E-2
20 12 2.0648234004526436E-2
20 13 2.048731669770221E-2
20 14 2.0313946854340386E-2
20 15 2.0128358794688456E-2
20 16 1.993080622313797E-2
20 17 1.972156233480271E-2
20 18 1.9500919868159917E-2
20 19 1.9269191094732192E-2
20 20 1.9026707737260652E-2
20 21 1.8773820808433497E-2
20 22 1.8510900362979643E-2
20 23 1.823833515680348E-2
20 24 1.7956532207811918E-2
20 25 1.7665916254153934E-2
20 26 1.73669291067412E-2
20 27 1.7060028894128686E-2
20 28 1.674568919909003E-2
20 29 1.6424398087505163E-2
20 30 1.609665703147003E-2
20 31 1.5762979729821595E-2
20 32 1.5423890830528158E-2
20 33 1.5079924560608398E-2
20 34 1.4731623270395854E-2
20 35 1.4379535900043669E-2
20 36 1.402421637715338E-2
20 37 1.3666221955298655E-2
20 38 1.3306111503989311E-2
20 39 1.2944443761273468E-2
20 40 1.2581775560698904E-2
20 41 1.2218660044743057E-2
20 42 1.1855644877071376E-2
20 43 1.1493270466093976E-2
20 44 1.1132068212261481E-2
20 45 1.0772558791374596E-2
20 46 1.0415250485882417E-2
20 47 1.0060637575717641E-2
20 48 9.709198799669874E-3
20 49 9.361395897639874E-3
20 50 9.017672243357915E-3
20 51 8.678451576299573E-3
20 52 8.344136840603898E-3
20 53 8.015109137805116E-3
20 54 7.691726799142598E-3
20 55 7.374324582128342E-3
20 56 7.063212994940332E-3
20 57 6.758677751087039E-3
20 58 6.460979355666508E-3
20 59 6.170352823435305E-3
20 60 5.887007527820546E-3
20 61 5.611127178963393E-3
20 62 5.342869927885378E-3
20 63 5.08236859292927E-3
20 64 4.829731003752262E-3
20 65 4.585040457348377E-3
20 66 4.348356279855307E-3
20 67 4.119714487263259E-3
20 68 3.8991285375934515E-3
20 69 3.686590166654129E-3
20 70 3.482070299113614E-3
20 71 3.285520026352996E-3
20 72 3.0968716423746367E-3
20 73 2.9160397289446282E-3
20 74 2.7429222811347267E-3
20 75 2.577401864498159E-3
20 76 2.419346795259481E-3
20 77 2.268612335116018E-3
20 78 2.125041892531451E-3
20 79 1.988468222744521E-3
20 80 1.8587146191109336E-3
20 81 1.6841425866698377E-3
20 82 1.5729034620464647E-3
20 83 1.4673804522774983E-3
20 84 1.367416578217387E-3
20 85 1.2728475852982531E-3
20 86 1.183503143267951E-3
20 87 1.0992079961619481E-3
20 88 1.0197830585595082E-3
20 89 9.450464548521614E-4
20 90 8.748144989104668E-4
20 91 8.089026121686099E-4
20 92 7.471261787510978E-4
20 93 6.893013368380249E-4
20 94 6.352457060019391E-4
20 95 5.847790507477894E-4
20 96 5.377238809458774E-4
20 97 4.939059902648149E-4
20 98 4.531549340864822E-4
20 99 4.153044487175457E-4
20 100 3.801928140025063E-4
20 101 3.4766316169206583E-4
20 102 3.175637321289198E-4
20 103 2.8974808198221224E-4
20 104 2.64075245893548E-4
20 105 2.404098549935424E-4
20 106 2.186222153105597E-4
20 107 1.9858834912484408E-4
20 108 1.801900023241393E-4
20 109 1.6331462079362345E-4
20 110 1.478552988261544E-4
20 111 1.3371070247100844E-4
20 112 1.2078497065307907E-4
20 113 1.0898759679241744E-4
20 114 9.8233293538506E-5
20 115 8.844184310713185E-5
20 116 7.953793557242816E-5
20 117 7.145099732471724E-5
20 118 6.41150117582164E-5
20 119 5.746833410330014E-5
20 120 5.1453502167554E-5
21 1 2.1074836109448023E-2
21 2 2.1062355156468274E-2
21 3 2.103740410849323E-2
21 4 2.100000476313029E-2
21 5 2.0950190019350938E-2
21 6 2.0888004116285525E-2
21 7 2.0813502944553995E-2
21 8 2.0726754424212696E-2
21 9 2.0627838942081683E-2
21 10 2.051684984000736E-2
21 11 2.0393893944529146E-2
21 12 2.025909212747184E-2
21 13 2.0112579886191348E-2
21 14 1.9954507931571497E-2
21 15 1.978504277141277E-2
21 16 1.9604367276576426E-2
21 17 1.9412681217152727E-2
21 18 1.921020175601186E-2
21 19 1.899716388736758E-2
21 20 1.8773820808433497E-2
21 21 1.8540444212872716E-2
21 22 1.8297324495523813E-2
21 23 1.8044770858819108E-2
21 24 1.778311131238022E-2
21 25 1.7512692558466394E-2
21 26 1.723387975724565E-2
21 27 1.694705616723907E-2
21 28 1.665262265773553E-2
21 29 1.6350997091467322E-2
21 30 1.6042613577356545E-2
21 31 1.572792159466688E-2
21 32 1.5407384991405234E-2
21 33 1.5081480861292865E-2
21 34 1.475069830504708E-2
21 35 1.4415537083063958E-2
21 36 1.407650616785371E-2
21 37 1.3734122205737317E-2
21 38 1.338890789835304E-2
21 39 1.3041390315432026E-2
21 40 1.2692099151074367E-2
21 41 1.2341564936382436E-2
21 42 1.1990317221781888E-2
21 43 1.1638882742679036E-2
21 44 1.1287783582264899E-2
21 45 1.0937535345282235E-2
21 46 1.058864535642516E-2
21 47 1.0241610896746111E-2
21 48 9.896917491009198E-3
21 49 9.555037258360087E-3
21 50 9.216427337990832E-3
21 51 8.881528400674363E-3
21 52 8.550763256140204E-3
21 53 8.224535565273312E-3
21 54 7.903228665055956E-3
21 55 7.587204513052362E-3
21 56 7.2768027570722805E-3
21 57 6.972339934457357E-3
21 58 6.674108804227644E-3
21 59 6.382377814119239E-3
21 60 6.097390703351329E-3
21 61 5.819366240795066E-3
21 62 5.5484980970898065E-3
21 63 5.284954848175524E-3
21 64 5.028880106693898E-3
21 65 4.780392776763592E-3
21 66 4.53958742676539E-3
21 67 4.306534773986608E-3
21 68 4.0812822742768385E-3
21 69 3.863854809262231E-3
21 70 3.654255463156144E-3
21 71 3.452466380790999E-3
21 72 3.2584496981799206E-3
21 73 3.072148536696046E-3
21 74 2.893488051830055E-3
21 75 2.7223765274494408E-3
21 76 2.558706506532081E-3
21 77 2.4023559494770665E-3
21 78 2.253189411301806E-3
21 79 2.111059229310034E-3
21 80 1.9243532109863046E-3
21 81 1.8012462850076334E-3
21 82 1.6841425866698377E-3
21 83 1.5729034620464647E-3
21 84 1.4673804522774983E-3
21 85 1.367416578217387E-3
21 86 1.2728475852982531E-3
21 87 1.183503143267951E-3
21 88 1.0992079961619481E-3
21 89 1.0197830585595082E-3
21 90 9.450464548521614E-4
21 91 8.748144989104668E-4
21 92 8.089026121686099E-4
21 93 7.471261787510978E-4
21 94 6.893013368380249E-4
21 95 6.352457060019391E-4
21 96 5.847790507477894E-4
21 97 5.377238809458774E-4
21 98 4.939059902648149E-4
21 99 4.531549340864822E-4
21 100 4.153044487175457E-4
21 101 3.801928140025063E-4
21 102 3.4766316169206583E-4
21 103 3.175637321289198E-4
21 104 2.8974808198221224E-4
21 105 2.64075245893548E-4
21 106 2.404098549935424E-4
21 107 2.186222153105597E-4
21 108 1.9858834912484408E-4
21 109 1.801900023241393E-4
21 110 1.6331462079362345E-4
21 111 1.478552988261544E-4
21 112 1.3371070247100844E-4
21 113 1.2078497065307907E-4
21 114 1.0898759679241744E-4
21 115 9.8233293538506E-5
21 116 8.844184310713185E-5
21 117 7.953793557242816E-5
21 118 7.145099732471724E-5
21 119 6.41150117582164E-5
21 120 5.746833410330014E-5
21 121 5.1453502167554E-5
22 1 2.0588916050136963E-2
22 2 2.057778935376011E-2
22 3 2.0555540626050715E-2
22 4 2.052217931760293E-2
22 5 2.047771990373047E-2
22 6 2.0422182238643418E-2
22 7 2.0355592019209286E-2
22 8 2.0277981351184672E-2
22 9 2.018938940921052E-2
22 10 2.0089863180390424E-2
22 11 1.997945827993689E-2
22 12 1.9858239826194057E-2
22 13 1.9726283361341128E-2
22 14 1.9583675803263735E-2
22 15 1.9430516413459463E-2
22 16 1.926691776542753E-2
22 17 1.9093006697785575E-2
22 18 1.890892523636039E-2
22 19 1.871483146971317E-2
22 20 1.8510900362979643E-2
22 21 1.8297324495523813E-2
22 22 1.807431470871218E-2
22 23 1.7842100651100548E-2
22 24 1.7600931209473585E-2
22 25 1.7351074815471934E-2
22 26 1.7092819618964264E-2
22 27 1.682647352085249E-2
22 28 1.6552364059616357E-2
22 29 1.6270838147586914E-2
22 30 1.5982261654664175E-2
22 31 1.568701883894018E-2
22 32 1.5385511625431586E-2
22 33 1.5078158735843915E-2
22 34 1.476539467396097E-2
22 35 1.444766857285712E-2
22 36 1.4125442911647895E-2
22 37 1.3799192110908094E-2
22 38 1.3469401017180032E-2
22 39 1.313656328815394E-2
22 40 1.2801179691115558E-2
22 41 1.2463756328113198E-2
22 42 1.2124802801990096E-2
22 43 1.1784830337952811E-2
22 44 1.1444349875699792E-2
22 45 1.1103870147315462E-2
22 46 1.076389575614593E-2
22 47 1.0424925271716717E-2
22 48 1.0087449355436325E-2
22 49 9.751948931360157E-3
22 50 9.418893415676536E-3
22 51 9.088739017831464E-3
22 52 8.761927125343778E-3
22 53 8.438882783391045E-3
22 54 8.120013279183077E-3
22 55 7.805706839999895E-3
22 56 7.4963314525693875E-3
22 57 7.192233810212886E-3
22 58 6.893738392910088E-3
22 59 6.601146684143668E-3
22 60 6.314736527093759E-3
22 61 6.034761621477742E-3
22 62 5.761451161085212E-3
22 63 5.495009610854434E-3
22 64 5.235616621186855E-3
22 65 4.9834270761109105E-3
22 66 4.738571270894894E-3
22 67 4.501155213778969E-3
22 68 4.271261045655388E-3
22 69 4.048947570778854E-3
22 70 3.834250890939616E-3
22 71 3.6271851349830688E-3
22 72 3.427743275112408E-3
22 73 3.2358980210653475E-3
22 74 3.05160278301076E-3
22 75 2.8747926938639773E-3
22 76 2.7053856816670265E-3
22 77 2.543283582717869E-3
22 78 2.3883732862556495E-3
22 79 2.1890743995435897E-3
22 80 2.0535908952067335E-3
22 81 1.9243532109863046E-3
22 82 1.8012462850076334E-3
22 83 1.6841425866698377E-3
22 84 1.5729034620464647E-3
22 85 1.4673804522774983E-3
22 86 1.367416578217387E-3
22 87 1.2728475852982531E-3
22 88 1.183503143267951E-3
22 89 1.0992079961619481E-3
22 90 1.0197830585595082E-3
22 91 9.450464548521614E-4
22 92 8.748144989104668E-4
22 93 8.089026121686099E-4
22 94 7.471261787510978E-4
22 95 6.893013368380249E-4
22 96 6.352457060019391E-4
22 97 5.847790507477894E-4
22 98 5.377238809458774E-4
22 99 4.939059902648149E-4
22 100 4.531549340864822E-4
22 101 4.153044487175457E-4
22 102 3.801928140025063E-4
22 103 3.4766316169206583E-4
22 104 3.175637321289198E-4
22 105 2.8974808198221224E-4
22 106 2.64075245893548E-4
22 107 2.404098549935424E-4
22 108 2.186222153105597E-4
22 109 1.9858834912484408E-4
22 110 1.801900023241393E-4
22 111 1.6331462079362345E-4
22 112 1.478552988261544E-4
22 113 1.3371070247100844E-4
22 114 1.2078497065307907E-4
22 115 1.0898759679241744E-4
22 116 9.8233293538506E-5
22 117 8.844184310713185E-5
22 118 7.953793557242816E-5
22 119 7.145099732471724E-5
22 120 6.41150117582164E-5
22 121 5.746833410330014E-5
22 122 5.1453502167554E-5
23 1 2.009186929444905E-2
23 2 2.0082101519719404E-2
23 3 2.0062564562869808E-2
23 4 2.0033255766650895E-2
23 5 1.999417153689541E-2
23 6 1.9945307806654232E-2
23 7 1.988666064527409E-2
23 8 1.9818227004207115E-2
23 9 1.974000558949341E-2
23 10 1.9651997849140058E-2
23 11 1.9554209062055336E-2
23 12 1.9446649513806178E-2
23 13 1.932933574326644E-2
23 14 1.9202291843229094E-2
23 15 1.9065550797278494E-2
23 16 1.8919155834668615E-2
23 17 1.876316178463519E-2
23 18 1.8597636411486883E-2
23 19 1.8422661711972453E-2
23 20 1.823833515680348E-2
23 21 1.8044770858819108E-2
23 22 1.7842100651100548E-2
23 23 1.763047505936666E-2
23 24 1.7410064154192263E-2
23 25 1.7181058269971454E-2
23 26 1.6943668579078777E-2
23 27 1.6698127511341556E-2
23 28 1.6444689010703874E-2
23 29 1.618362862281321E-2
23 30 1.591524340917055E-2
23 31 1.563985168542888E-2
23 32 1.5357792583378863E-2
23 33 1.5069425438099691E-2
23 34 1.4775129003653954E-2
23 35 1.4475300502544907E-2
23 36 1.4170354515911504E-2
23 37 1.386072172309061E-2
23 38 1.3546847500708992E-2
23 39 1.3229190392863565E-2
23 40 1.2908220465192771E-2
23 41 1.258441755672322E-2
23 42 1.225826944428412E-2
23 43 1.1930269935010852E-2
23 44 1.1600916903003375E-2
23 45 1.1270710286563486E-2
23 46 1.094015006260702E-2
23 47 1.0609734214836143E-2
23 48 1.0279956712067675E-2
23 49 9.951305512752773E-3
23 50 9.624260611200789E-3
23 51 9.29929214034595E-3
23 52 8.976858545082305E-3
23 53 8.657404839253544E-3
23 54 8.341360958334983E-3
23 55 8.029140218700102E-3
23 56 7.7211378931405E-3
23 57 7.4177299110221185E-3
23 58 7.11927169012891E-3
23 59 6.826097105884608E-3
23 60 6.538517602270082E-3
23 61 6.256821447383905E-3
23 62 5.98127313524237E-3
23 63 5.712112934096542E-3
23 64 5.449556580271447E-3
23 65 5.193795115318156E-3
23 66 4.94499486312449E-3
23 67 4.703297542563673E-3
23 68 4.468820510280984E-3
23 69 4.241657127332772E-3
23 70 4.0218772426057784E-3
23 71 3.809527785261025E-3
23 72 3.6046334578684956E-3
23 73 3.4071975214271222E-3
23 74 3.2172026630992697E-3
23 75 3.0346119372283457E-3
23 76 2.8593697700497653E-3
23 77 2.6914030184456094E-3
23 78 2.4791685709596527E-3
23 79 2.330904952152349E-3
23 80 2.1890743995435897E-3
23 81 2.0535908952067335E-3
23 82 1.9243532109863046E-3
23 83 1.8012462850076334E-3
23 84 1.6841425866698377E-3
23 85 1.5729034620464647E-3
23 86 1.4673804522774983E-3
23 87 1.367416578217387E-3
23 88 1.2728475852982531E-3
23 89 1.183503143267951E-3
23 90 1.0992079961619481E-3
23 91 1.0197830585595082E-3
23 92 9.450464548521614E-4
23 93 8.748144989104668E-4
23 94 8.089026121686099E-4
23 95 7.471261787510978E-4
23 96 6.893013368380249E-4
23 97 6.352457060019391E-4
23 98 5.847790507477894E-4
23 99 5.377238809458774E-4
23 100 4.939059902648149E-4
23 101 4.531549340864822E-4
23 102 4.153044487175457E-4
23 103 3.801928140025063E-4
23 104 3.4766316169206583E-4
23 105 3.175637321289198E-4
23 106 2.8974808198221224E-4
23 107 2.64075245893548E-4
23 108 2.404098549935424E-4
23 109 2.186222153105597E-4
23 110 1.9858834912484408E-4
23 111 1.801900023241393E-4
23 112 1.6331462079362345E-4
23 113 1.478552988261544E-4
23 114 1.3371070247100844E-4
23 115 1.2078497065307907E-4
23 116 1.0898759679241744E-4
23 117 9.8233293538506E-5
23 118 8.844184310713185E-5
23 119 7.953793557242816E-5
23 120 7.145099732471724E-5
23 121 6.41150117582164E-5
23 122 5.746833410330014E-5
23 123 5.1453502167554E-5
24 1 1.9585054764031495E-2
24 2 1.9576644503558747E-2
24 3 1.9559816660319588E-2
24 4 1.9534556782162288E-2
24 5 1.950084366957466E-2
24 6 1.9458649943526085E-2
24 7 1.940794279165206E-2
24 8 1.9348684883582833E-2
24 9 1.9280835444136647E-2
24 10 1.9204351471158322E-2
24 11 1.9119189083009344E-2
24 12 1.902530497912772E-2
24 13 1.8922657995694148E-2
24 14 1.88112107372812E-2
24 15 1.8690931264438247E-2
24 16 1.8561794816486156E-2
24 17 1.8423785548369924E-2
24 18 1.8276898260247254E-2
24 19 1.8121140098577196E-2
24 20 1.7956532207811918E-2
24 21 1.778311131238022E-2
24 22 1.7600931209473585E-2
24 23 1.7410064154192263E-2
24 24 1.721060211986453E-2
24 25 1.7002657917799105E-2
24 26 1.6786366162348746E-2
24 27 1.656188406893016E-2
24 28 1.632939207453841E-2
24 29 1.608909427228751E-2
24 30 1.5841218653577918E-2
24 31 1.5586017153609232E-2
24 32 1.5323765498096985E-2
24 33 1.5054762851188903E-2
24 34 1.4779331266683628E-2
24 35 1.4497814946708338E-2
24 36 1.4210579313987622E-2
24 37 1.3918009905712403E-2
24 38 1.3620511098774142E-2
24 39 1.3318504677747823E-2
24 40 1.3012428258471227E-2
24 41 1.2702733581363694E-2
24 42 1.2389884689743974E-2
24 43 1.2074356009334684E-2
24 44 1.1756630345874547E-2
24 45 1.1437196818294932E-2
24 46 1.11165487452537E-2
24 47 1.0795181502957978E-2
24 48 1.0473590372152591E-2
24 49 1.0152268391908307E-2
24 50 9.831704237422188E-3
24 51 9.51238013845163E-3
24 52 9.194769854255717E-3
24 53 8.879336720026243E-3
24 54 8.56653177877057E-3
24 55 8.256792011475588E-3
24 56 7.950538677152832E-3
24 57 7.648175773056524E-3
24 58 7.3500886239966385E-3
24 59 7.056642608255323E-3
24 60 6.768182026174754E-3
24 61 6.485029116034709E-3
24 62 6.207483220395236E-3
24 63 5.935820104659382E-3
24 64 5.670291428227844E-3
24 65 5.411124367285026E-3
24 66 5.158521386986936E-3
24 67 4.912660159626505E-3
24 68 4.673693624241058E-3
24 69 4.441750182107909E-3
24 70 4.216934021654181E-3
24 71 3.999325565491205E-3
24 72 3.788982031575739E-3
24 73 3.585938099902418E-3
24 74 3.390206675644708E-3
24 75 3.2017797392850577E-3
24 76 3.0206292740069286E-3
24 77 2.795254758291549E-3
24 78 2.633934684342309E-3
24 79 2.4791685709596527E-3
24 80 2.330904952152349E-3
24 81 2.1890743995435897E-3
24 82 2.0535908952067335E-3
24 83 1.9243532109863046E-3
24 84 1.8012462850076334E-3
24 85 1.6841425866698377E-3
24 86 1.5729034620464647E-3
24 87 1.4673804522774983E-3
24 88 1.367416578217387E-3
24 89 1.2728475852982531E-3
24 90 1.183503143267951E-3
24 91 1.0992079961619481E-3
24 92 1.0197830585595082E-3
24 93 9.450464548521614E-4
24 94 8.748144989104668E-4
24 95 8.089026121686099E-4
24 96 7.471261787510978E-4
24 97 6.893013368380249E-4
24 98 6.352457060019391E-4
24 99 5.847790507477894E-4
24 100 5.377238809458774E-4
24 101 4.939059902648149E-4
24 102 4.531549340864822E-4
24 103 4.153044487175457E-4
24 104 3.801928140025063E-4
24 105 3.4766316169206583E-4
24 106 3.175637321289198E-4
24 107 2.8974808198221224E-4
24 108 2.64075245893548E-4
24 109 2.404098549935424E-4
24 110 2.186222153105597E-4
24 111 1.9858834912484408E-4
24 112 1.801900023241393E-4
24 113 1.6331462079362345E-4
24 114 1.478552988261544E-4
24 115 1.3371070247100844E-4
24 116 1.2078497065307907E-4
24 117 1.0898759679241744E-4
24 118 9.8233293538506E-5
24 119 8.844184310713185E-5
24 120 7.953793557242816E-5
24 121 7.145099732471724E-5
24 122 6.41150117582164E-5
24 123 5.746833410330014E-5
24 124 5.1453502167554E-5
25 1 1.906982997314119E-2
25 2 1.9062769904631675E-2
25 3 1.904863672285123E-2
25 4 1.9027404563243352E-2
25 5 1.8999035188792965E-2
25 6 1.8963478654572485E-2
25 7 1.8920674181834827E-2
25 8 1.8870551231581593E-2
25 9 1.8813030765247745E-2
25 10 1.874802667800593E-2
25 11 1.867544738823071E-2
25 12 1.859519756489731E-2
25 13 1.850717997314248E-2
25 14 1.8411297416903297E-2
25 15 1.830745475648886E-2
25 16 1.8195560978139555E-2
25 17 1.807553129209822E-2
25 18 1.7947289235460233E-2
25 19 1.781076875608672E-2
25 20 1.7665916254153934E-2
25 21 1.7512692558466394E-2
25 22 1.7351074815471934E-2
25 23 1.7181058269971454E-2
25 24 1.7002657917799105E-2
25 25 1.681591001224182E-2
25 26 1.662087340765049E-2
25 27 1.64176307255456E-2
25 28 1.6206289330513796E-2
25 29 1.5986982105303114E-2
25 30 1.5759868016726193E-2
25 31 1.5525132466246021E-2
25 32 1.5282987421419272E-2
25 33 1.5033671326680922E-2
25 34 1.4777448794243288E-2
25 35 1.4514610078126343E-2
25 36 1.4245470336509239E-2
25 37 1.3970368689671154E-2
25 38 1.3689667082751234E-2
25 39 1.3403748964381804E-2
25 40 1.3113017793918746E-2
25 41 1.281789539149198E-2
25 42 1.2518820146414257E-2
25 43 1.2216245100607669E-2
25 44 1.1910635924626241E-2
25 45 1.160246880456476E-2
25 46 1.129222825864589E-2
25 47 1.0980404902570148E-2
25 48 1.066749318279861E-2
25 49 1.0353989096822006E-2
25 50 1.0040387919159148E-2
25 51 9.727181951331954E-3
25 52 9.414858313395568E-3
25 53 9.103896793772742E-3
25 54 8.794767773166848E-3
25 55 8.4879302372233E-3
25 56 8.183829891391612E-3
25 57 7.882897390127354E-3
25 58 7.585546691182938E-3
25 59 7.292173544286785E-3
25 60 7.003154122019951E-3
25 61 6.718843799186085E-3
25 62 6.439576085451722E-3
25 63 6.165661714526537E-3
25 64 5.897387891672962E-3
25 65 5.635017699896623E-3
25 66 5.378789663787041E-3
25 67 5.128917468664321E-3
25 68 4.88558983145343E-3
25 69 4.648970518562467E-3
25 70 4.419198504993335E-3
25 71 4.196388267968896E-3
25 72 3.980630207525127E-3
25 73 3.771991185793325E-3
25 74 3.570515176088206E-3
25 75 3.376224012423291E-3
25 76 3.1376647275268414E-3
25 77 2.9631609399036283E-3
25 78 2.795254758291549E-3
25 79 2.633934684342309E-3
25 80 2.4791685709596527E-3
25 81 2.330904952152349E-3
25 82 2.1890743995435897E-3
25 83 2.0535908952067335E-3
25 84 1.9243532109863046E-3
25 85 1.8012462850076334E-3
25 86 1.6841425866698377E-3
25 87 1.5729034620464647E-3
25 88 1.4673804522774983E-3
25 89 1.367416578217387E-3
25 90 1.2728475852982531E-3
25 91 1.183503143267951E-3
25 92 1.0992079961619481E-3
25 93 1.0197830585595082E-3
25 94 9.450464548521614E-4
25 95 8.748144989104668E-4
25 96 8.089026121686099E-4
25 97 7.471261787510978E-4
25 98 6.893013368380249E-4
25 99 6.352457060019391E-4
25 100 5.847790507477894E-4
25 101 5.377238809458774E-4
25 102 4.939059902648149E-4
25 103 4.531549340864822E-4
25 104 4.153044487175457E-4
25 105 3.801928140025063E-4
25 106 3.4766316169206583E-4
25 107 3.175637321289198E-4
25 108 2.8974808198221224E-4
25 109 2.64075245893548E-4
25 110 2.404098549935424E-4
25 111 2.186222153105597E-4
25 112 1.9858834912484408E-4
25 113 1.801900023241393E-4
25 114 1.6331462079362345E-4
25 115 1.478552988261544E-4
25 116 1.3371070247100844E-4
25 117 1.2078497065307907E-4
25 118 1.0898759679241744E-4
25 119 9.8233293538506E-5
25 120 8.844184310713185E-5
25 121 7.953793557242816E-5
25 122 7.145099732471724E-5
25 123 6.41150117582164E-5
25 124 5.746833410330014E-5
25 125 5.1453502167554E-5
26 1 1.8547545113741373E-2
26 2 1.8541822192433673E-2
26 3 1.8530357807555436E-2
26 4 1.8513115129481904E-2
26 5 1.8490039548241178E-2
26 6 1.8461059427101703E-2
26 7 1.842608709450202E-2
26 8 1.838502006349974E-2
26 9 1.833774246545088E-2
26 10 1.828412668232013E-2
26 11 1.8224035159893903E-2
26 12 1.8157322382245468E-2
26 13 1.8083836986106463E-2
26 14 1.8003423992350137E-2
26 15 1.7915927130604605E-2
26 16 1.7821191232100925E-2
26 17 1.7719064665229864E-2
26 18 1.7609401787937684E-2
26 19 1.749206539103697E-2
26 20 1.73669291067412E-2
26 21 1.723387975724565E-2
26 22 1.7092819618964264E-2
26 23 1.6943668579078777E-2
26 24 1.6786366162348746E-2
26 25 1.662087340765049E-2
26 26 1.644717457543867E-2
26 27 1.6265278669234128E-2
26 28 1.6075220756310304E-2
26 29 1.587706307495248E-2
26 30 1.5670895917971217E-2
26 31 1.5456838284536232E-2
26 32 1.5235038294829958E-2
26 33 1.5005673364473657E-2
26 34 1.4768950138123637E-2
26 35 1.4525104184044187E-2
26 36 1.4274399453809875E-2
26 37 1.401712751354807E-2
26 38 1.3753606555278814E-2
26 39 1.3484180198922157E-2
26 40 1.3209216097402558E-2
26 41 1.292910435896931E-2
26 42 1.2644255802355675E-2
26 43 1.2355100061705815E-2
26 44 1.2062083559297882E-2
26 45 1.17656673649772E-2
26 46 1.1466324961881208E-2
26 47 1.1164539938486522E-2
26 48 1.0860803627239563E-2
26 49 1.055561271004945E-2
26 50 1.0249466810731772E-2
26 51 9.942866094103086E-3
26 52 9.63630889084898E-3
26 53 9.330289366536173E-3
26 54 9.025295252225472E-3
26 55 8.721805653082872E-3
26 56 8.42028895019782E-3
26 57 8.121200809518026E-3
26 58 7.8249823104175E-3
26 59 7.532058204947565E-3
26 60 7.242835317298115E-3
26 61 6.957701091436963E-3
26 62 6.677022293317386E-3
26 63 6.401143872465301E-3
26 64 6.1303879861953165E-3
26 65 5.865053188174977E-3
26 66 5.605413781574009E-3
26 67 5.351719335613966E-3
26 68 5.104194362985729E-3
26 69 4.863038154338856E-3
26 70 4.6284247648771815E-3
26 71 4.400503147027258E-3
26 72 4.179397422186482E-3
26 73 3.965207283710916E-3
26 74 3.758008522571908E-3
26 75 3.5064001643299895E-3
26 76 3.3187556783199905E-3
26 77 3.1376647275268414E-3
26 78 2.9631609399036283E-3
26 79 2.795254758291549E-3
26 80 2.633934684342309E-3
26 81 2.4791685709596527E-3
26 82 2.330904952152349E-3
26 83 2.1890743995435897E-3
26 84 2.0535908952067335E-3
26 85 1.9243532109863046E-3
26 86 1.8012462850076334E-3
26 87 1.6841425866698377E-3
26 88 1.5729034620464647E-3
26 89 1.4673804522774983E-3
26 90 1.367416578217387E-3
26 91 1.2728475852982531E-3
26 92 1.183503143267951E-3
26 93 1.0992079961619481E-3
26 94 1.0197830585595082E-3
26 95 9.450464548521614E-4
26 96 8.748144989104668E-4
26 97 8.089026121686099E-4
26 98 7.471261787510978E-4
26 99 6.893013368380249E-4
26 100 6.352457060019391E-4
26 101 5.847790507477894E-4
26 102 5.377238809458774E-4
26 103 4.939059902648149E-4
26 104 4.531549340864822E-4
26 105 4.153044487175457E-4
26 106 3.801928140025063E-4
26 107 3.4766316169206583E-4
26 108 3.175637321289198E-4
26 109 2.8974808198221224E-4
26 110 2.64075245893548E-4
26 111 2.404098549935424E-4
26 112 2.186222153105597E-4
26 113 1.9858834912484408E-4
26 114 1.801900023241393E-4
26 115 1.6331462079362345E-4
26 116 1.478552988261544E-4
26 117 1.3371070247100844E-4
26 118 1.2078497065307907E-4
26 119 1.0898759679241744E-4
26 120 9.8233293538506E-5
26 121 8.844184310713185E-5
26 122 7.953793557242816E-5
26 123 7.145099732471724E-5
26 124 6.41150117582164E-5
26 125 5.746833410330014E-5
26 126 5.1453502167554E-5
27 1 1.8019537333033853E-2
27 2 1.8015133016665137E-2
27 3 1.800630059906435E-2
27 4 1.7992992792553265E-2
27 5 1.7975139367790646E-2
27 6 1.795264798817071E-2
27 7 1.7925405308766615E-2
27 8 1.7893278328371308E-2
27 9 1.7856115980572122E-2
27 10 1.781375094733885E-2
27 11 1.7766001676334887E-2
27 12 1.7712674581103052E-2
27 13 1.7653566401453127E-2
27 14 1.758846669980777E-2
27 15 1.7517160467962204E-2
27 16 1.7439430817694918E-2
27 17 1.7355061727940387E-2
27 18 1.7263840820806602E-2
27 19 1.716556213859216E-2
27 20 1.7060028894128686E-2
27 21 1.694705616723907E-2
27 22 1.682647352085249E-2
27 23 1.6698127511341556E-2
27 24 1.656188406893016E-2
27 25 1.64176307255456E-2
27 26 1.6265278669234128E-2
27 27 1.610476460620338E-2
27 28 1.5936052413672807E-2
27 29 1.5759134568978407E-2
27 30 1.5574033342762517E-2
27 31 1.5380801746555156E-2
27 32 1.5179524227590616E-2
27 33 1.4970317106272673E-2
27 34 1.4753328754274556E-2
27 35 1.452873951380717E-2
27 36 1.4296761361083017E-2
27 37 1.4057637319417535E-2
27 38 1.3811640629718992E-2
27 39 1.355907368829957E-2
27 40 1.330026676397272E-2
27 41 1.3035576508266252E-2
27 42 1.2765384274260867E-2
27 43 1.2490094261045888E-2
27 44 1.2210131502056774E-2
27 45 1.192593971661433E-2
27 46 1.1637979044817831E-2
27 47 1.1346723686550623E-2
27 48 1.1052659465737363E-2
27 49 1.0756281341149329E-2
27 50 1.0458090884993389E-2
27 51 1.0158593750248798E-2
27 52 9.858297147243691E-3
27 53 9.55770734930171E-3
27 54 9.257327246452196E-3
27 55 8.957653965199992E-3
27 56 8.659176571209286E-3
27 57 8.362373870487966E-3
27 58 8.067712323282654E-3
27 59 7.77564408342883E-3
27 60 7.486605174364578E-3
27 61 7.201013811429417E-3
27 62 6.9192688784505425E-3
27 63 6.641748564986166E-3
27 64 6.368809168967316E-3
27 65 6.100784067872702E-3
27 66 5.8379828600019015E-3
27 67 5.580690675895417E-3
27 68 5.329167658499392E-3
27 69 5.083648609300444E-3
27 70 4.844342796372778E-3
27 71 4.611433919094767E-3
27 72 4.3850802232130465E-3
27 73 4.1654147589650645E-3
27 74 3.901092271952699E-3
27 75 3.7005401884686075E-3
27 76 3.5064001643299895E-3
27 77 3.3187556783199905E-3
27 78 3.1376647275268414E-3
27 79 2.9631609399036283E-3
27 80 2.795254758291549E-3
27 81 2.633934684342309E-3
27 82 2.4791685709596527E-3
27 83 2.330904952152349E-3
27 84 2.1890743995435897E-3
27 85 2.0535908952067335E-3
27 86 1.9243532109863046E-3
27 87 1.8012462850076334E-3
27 88 1.6841425866698377E-3
27 89 1.5729034620464647E-3
27 90 1.4673804522774983E-3
27 91 1.367416578217387E-3
27 92 1.2728475852982531E-3
27 93 1.183503143267951E-3
27 94 1.0992079961619481E-3
27 95 1.0197830585595082E-3
27 96 9.450464548521614E-4
27 97 8.748144989104668E-4
27 98 8.089026121686099E-4
27 99 7.471261787510978E-4
27 100 6.893013368380249E-4
27 101 6.352457060019391E-4
27 102 5.847790507477894E-4
27 103 5.377238809458774E-4
27 104 4.939059902648149E-4
27 105 4.531549340864822E-4
27 106 4.153044487175457E-4
27 107 3.801928140025063E-4
27 108 3.4766316169206583E-4
27 109 3.175637321289198E-4
27 110 2.8974808198221224E-4
27 111 2.64075245893548E-4
27 112 2.404098549935424E-4
27 113 2.186222153105597E-4
27 114 1.9858834912484408E-4
27 115 1.801900023241393E-4
27 116 1.6331462079362345E-4
27 117 1.478552988261544E-4
27 118 1.3371070247100844E-4
27 119 1.2078497065307907E-4
27 120 1.0898759679241744E-4
27 121 9.8233293538506E-5
27 122 8.844184310713185E-5
27 123 7.953793557242816E-5
27 124 7.145099732471724E-5
27 125 6.41150117582164E-5
27 126 5.746833410330014E-5
27 127 5.1453502167554E-5
28 1 1.7487125235957617E-2
28 2 1.748401573966453E-2
28 3 1.7477768001662963E-2
28 4 1.7468324837373088E-2
28 5 1.7455601232482798E-2
28 6 1.7439485249455558E-2
28 7 1.7419839222039997E-2
28 8 1.7396501225839002E-2
28 9 1.7369286810259274E-2
28 10 1.733799097458688E-2
28 11 1.7302390368548E-2
28 12 1.726224569554255E-2
28 13 1.7217304294804357E-2
28 14 1.716730287706519E-2
28 15 1.711197038689808E-2
28 16 1.7051030963801665E-2
28 17 1.6984206973271656E-2
28 18 1.6911222078594867E-2
28 19 1.6831804323898317E-2
28 20 1.674568919909003E-2
28 21 1.665262265773553E-2
28 22 1.6552364059616357E-2
28 23 1.6444689010703874E-2
28 24 1.632939207453841E-2
28 25 1.6206289330513796E-2
28 26 1.6075220756310304E-2
28 27 1.5936052413672807E-2
28 28 1.5788678418871483E-2
28 29 1.563302268148285E-2
28 30 1.5469040397562346E-2
28 31 1.5296719285816902E-2
28 32 1.511608055799787E-2
28 33 1.4927179617391517E-2
28 34 1.4730106481956206E-2
28 35 1.4524985931313386E-2
28 36 1.431197737941483E-2
28 37 1.409127447725394E-2
28 38 1.3863104452438291E-2
28 39 1.3627727194769556E-2
28 40 1.3385434099163264E-2
28 41 1.3136546679264277E-2
28 42 1.2881414966956465E-2
28 43 1.2620415714611826E-2
28 44 1.2353950418362337E-2
28 45 1.2082443181897405E-2
28 46 1.1806338441283745E-2
28 47 1.1526098572068672E-2
28 48 1.1242201400460389E-2
28 49 1.0955137640681302E-2
28 50 1.0665408280666354E-2
28 51 1.0373521938133994E-2
28 52 1.0079992208701528E-2
28 53 9.785335027159715E-3
28 54 9.49006606227623E-3
28 55 9.19469816457861E-3
28 56 8.899738885490139E-3
28 57 8.605688084973914E-3
28 58 8.313035643499295E-3
28 59 8.022259292699665E-3
28 60 7.733822577560131E-3
28 61 7.448172961378157E-3
28 62 7.165740083098196E-3
28 63 6.886934174952558E-3
28 64 6.612144646663551E-3
28 65 6.341738840794241E-3
28 66 6.07606096219411E-3
28 67 5.815431182887328E-3
28 68 5.5601449222101315E-3
28 69 5.3104723005333145E-3
28 70 5.06665776351803E-3
28 71 4.828919872558567E-3
28 72 4.59745125587335E-3
28 73 4.32096521145483E-3
28 74 4.107946424861764E-3
28 75 3.901092271952699E-3
28 76 3.7005401884686075E-3
28 77 3.5064001643299895E-3
28 78 3.3187556783199905E-3
28 79 3.1376647275268414E-3
28 80 2.9631609399036283E-3
28 81 2.795254758291549E-3
28 82 2.633934684342309E-3
28 83 2.4791685709596527E-3
28 84 2.330904952152349E-3
28 85 2.1890743995435897E-3
28 86 2.0535908952067335E-3
28 87 1.9243532109863046E-3
28 88 1.8012462850076334E-3
28 89 1.6841425866698377E-3
28 90 1.5729034620464647E-3
28 91 1.4673804522774983E-3
28 92 1.367416578217387E-3
28 93 1.2728475852982531E-3
28 94 1.183503143267951E-3
28 95 1.0992079961619481E-3
28 96 1.0197830585595082E-3
28 97 9.450464548521614E-4
28 98 8.748144989104668E-4
28 99 8.089026121686099E-4
28 100 7.471261787510978E-4
28 101 6.893013368380249E-4
28 102 6.352457060019391E-4
28 103 5.847790507477894E-4
28 104 5.377238809458774E-4
28 105 4.939059902648149E-4
28 106 4.531549340864822E-4
28 107 4.153044487175457E-4
28 108 3.801928140025063E-4
28 109 3.4766316169206583E-4
28 110 3.175637321289198E-4
28 111 2.8974808198221224E-4
28 112 2.64075245893548E-4
28 113 2.404098549935424E-4
28 114 2.186222153105597E-4
28 115 1.9858834912484408E-4
28 116 1.801900023241393E-4
28 117 1.6331462079362345E-4
28 118 1.478552988261544E-4
28 119 1.3371070247100844E-4
28 120 1.2078497065307907E-4
28 121 1.0898759679241744E-4
28 122 9.8233293538506E-5
28 123 8.844184310713185E-5
28 124 7.953793557242816E-5
28 125 7.145099732471724E-5
28 126 6.41150117582164E-5
28 127 5.746833410330014E-5
28 128 5.1453502167554E-5
29 1 1.695160364258829E-2
29 2 1.6949760220955443E-2
29 3 1.6946039977973268E-2
29 4 1.6940376441592495E-2
29 5 1.6932670719038E-2
29 6 1.6922792466352084E-2
29 7 1.691058116652794E-2
29 8 1.6895847703927967E-2
29 9 1.687837621985376E-2
29 10 1.6857926231468427E-2
29 11 1.6834234993794543E-2
29 12 1.6807020082249307E-2
29 13 1.6775982171154613E-2
29 14 1.6740807981894673E-2
29 15 1.6701173372904655E-2
29 16 1.665674654247482E-2
29 17 1.6607191314456145E-2
29 18 1.655217047636337E-2
29 19 1.6491349139092736E-2
29 20 1.6424398087505163E-2
29 21 1.6350997091467322E-2
29 22 1.6270838147586914E-2
29 23 1.618362862281321E-2
29 24 1.608909427228751E-2
29 25 1.5986982105303114E-2
29 26 1.587706307495248E-2
29 27 1.5759134568978407E-2
29 28 1.563302268148285E-2
29 29 1.549858424745542E-2
29 30 1.5355708624537234E-2
29 31 1.520431920900506E-2
29 32 1.5044374675617802E-2
29 33 1.4875869933681403E-2
29 34 1.4698836794430348E-2
29 35 1.4513344347563868E-2
29 36 1.431949904748431E-2
29 37 1.4117444512435585E-2
29 38 1.3907361042304504E-2
29 39 1.3689464863301986E-2
29 40 1.3464007110061113E-2
29 41 1.3231272557853477E-2
29 42 1.2991578119615236E-2
29 43 1.2745271124272914E-2
29 44 1.2492727394452457E-2
29 45 1.2234349143031752E-2
29 46 1.1970562709148246E-2
29 47 1.1701816155193511E-2
29 48 1.142857674701261E-2
29 49 1.1151328339977415E-2
29 50 1.0870568693821907E-2
29 51 1.0586806739119084E-2
29 52 1.0300559818050017E-2
29 53 1.0012350921676048E-2
29 54 9.722705945286129E-3
29 55 9.432150982566376E-3
29 56 9.141209678343238E-3
29 57 8.850400658501468E-3
29 58 8.560235054390925E-3
29 59 8.271214137630599E-3
29 60 7.983827079713245E-3
29 61 7.698548849228911E-3
29 62 7.415838257880172E-3
29 63 7.136136164775582E-3
29 64 6.859863846779482E-3
29 65 6.5874215409849595E-3
29 66 6.3191871636796675E-3
29 67 6.055515208508825E-3
29 68 5.79673582492125E-3
29 69 5.543154076427717E-3
29 70 5.295049376719103E-3
29 71 5.0526751002966126E-3
29 72 4.76480486080035E-3
29 73 4.53998292177005E-3
29 74 4.32096521145483E-3
29 75 4.107946424861764E-3
29 76 3.901092271952699E-3
29 77 3.7005401884686075E-3
29 78 3.5064001643299895E-3
29 79 3.3187556783199905E-3
29 80 3.1376647275268414E-3
29 81 2.9631609399036283E-3
29 82 2.795254758291549E-3
29 83 2.633934684342309E-3
29 84 2.4791685709596527E-3
29 85 2.330904952152349E-3
29 86 2.1890743995435897E-3
29 87 2.0535908952067335E-3
29 88 1.9243532109863046E-3
29 89 1.8012462850076334E-3
29 90 1.6841425866698377E-3
29 91 1.5729034620464647E-3
29 92 1.4673804522774983E-3
29 93 1.367416578217387E-3
29 94 1.2728475852982531E-3
29 95 1.183503143267951E-3
29 96 1.0992079961619481E-3
29 97 1.0197830585595082E-3
29 98 9.450464548521614E-4
29 99 8.748144989104668E-4
29 100 8.089026121686099E-4
29 101 7.471261787510978E-4
29 102 6.893013368380249E-4
29 103 6.352457060019391E-4
29 104 5.847790507477894E-4
29 105 5.377238809458774E-4
29 106 4.939059902648149E-4
29 107 4.531549340864822E-4
29 108 4.153044487175457E-4
29 109 3.801928140025063E-4
29 110 3.4766316169206583E-4
29 111 3.175637321289198E-4
29 112 2.8974808198221224E-4
29 113 2.64075245893548E-4
29 114 2.404098549935424E-4
29 115 2.186222153105597E-4
29 116 1.9858834912484408E-4
29 117 1.801900023241393E-4
29 118 1.6331462079362345E-4
29 119 1.478552988261544E-4
29 120 1.3371070247100844E-4
29 121 1.2078497065307907E-4
29 122 1.0898759679241744E-4
29 123 9.8233293538506E-5
29 124 8.844184310713185E-5
29 125 7.953793557242816E-5
29 126 7.145099732471724E-5
29 127 6.41150117582164E-5
29 128 5.746833410330014E-5
29 129 5.1453502167554E-5
30 1 1.641423862758612E-2
30 2 1.6413627880897032E-2
30 3 1.641236866088498E-2
30 4 1.641038585963818E-2
30 5 1.640756767546178E-2
30 6 1.6403766636110387E-2
30 7 1.6398800948240054E-2
30 8 1.63924561605427E-2
30 9 1.638448712513712E-2
30 10 1.6374620239061423E-2
30 11 1.6362555945169735E-2
30 12 1.6347971469406607E-2
30 13 1.633052376933962E-2
30 14 1.6309852666994078E-2
30 15 1.6285584137471408E-2
30 16 1.6257333723559135E-2
30 17 1.6224710045566533E-2
30 18 1.6187318374954015E-2
30 19 1.6144764239970213E-2
30 20 1.609665703147003E-2
30 21 1.6042613577356545E-2
30 22 1.5982261654664175E-2
30 23 1.591524340917055E-2
30 24 1.5841218653577918E-2
30 25 1.5759868016726193E-2
30 26 1.5670895917971217E-2
30 27 1.5574033342762517E-2
30 28 1.5469040397562346E-2
30 29 1.5355708624537234E-2
30 30 1.5233863058898135E-2
30 31 1.5103364014338132E-2
30 32 1.4964108584688593E-2
30 33 1.4816031852656633E-2
30 34 1.4659107799289063E-2
30 35 1.449334991060127E-2
30 36 1.4318811480584621E-2
30 37 1.4135585612534873E-2
30 38 1.394380492329928E-2
30 39 1.3743640957596061E-2
30 40 1.3535303321992199E-2
30 41 1.3319038550412072E-2
30 42 1.3095128715169926E-2
30 43 1.2863889799455868E-2
30 44 1.2625669848942329E-2
30 45 1.2380846921703298E-2
30 46 1.2129826856941518E-2
30 47 1.1873040884092185E-2
30 48 1.1610943094710537E-2
30 49 1.1344007800153216E-2
30 50 1.1072726798430145E-2
30 51 1.079760657373793E-2
30 52 1.0519165452093604E-2
30 53 1.0237930736176432E-2
30 54 9.954435841966194E-3
30 55 9.669217459050757E-3
30 56 9.382812755577705E-3
30 57 9.09575664776025E-3
30 58 8.808579152632771E-3
30 59 8.521802841404505E-3
30 60 8.235940409299376E-3
30 61 7.95149237621526E-3
30 62 7.668944930906295E-3
30 63 7.388767929707097E-3
30 64 7.11141305909699E-3
30 65 6.837312169664909E-3
30 66 6.566875787299674E-3
30 67 6.30049180571359E-3
30 68 6.0385243627264105E-3
30 69 5.781312901107039E-3
30 70 5.5291714132063E-3
30 71 5.230934364960887E-3
30 72 4.995206766193312E-3
30 73 4.76480486080035E-3
30 74 4.53998292177005E-3
30 75 4.32096521145483E-3
30 76 4.107946424861764E-3
30 77 3.901092271952699E-3
30 78 3.7005401884686075E-3
30 79 3.5064001643299895E-3
30 80 3.3187556783199905E-3
30 81 3.1376647275268414E-3
30 82 2.9631609399036283E-3
30 83 2.795254758291549E-3
30 84 2.633934684342309E-3
30 85 2.4791685709596527E-3
30 86 2.330904952152349E-3
30 87 2.1890743995435897E-3
30 88 2.0535908952067335E-3
30 89 1.9243532109863046E-3
30 90 1.8012462850076334E-3
30 91 1.6841425866698377E-3
30 92 1.5729034620464647E-3
30 93 1.4673804522774983E-3
30 94 1.367416578217387E-3
30 95 1.2728475852982531E-3
30 96 1.183503143267951E-3
30 97 1.0992079961619481E-3
30 98 1.0197830585595082E-3
30 99 9.450464548521614E-4
30 100 8.748144989104668E-4
30 101 8.089026121686099E-4
30 102 7.471261787510978E-4
30 103 6.893013368380249E-4
30 104 6.352457060019391E-4
30 105 5.847790507477894E-4
30 106 5.377238809458774E-4
30 107 4.939059902648149E-4
30 108 4.531549340864822E-4
30 109 4.153044487175457E-4
30 110 3.801928140025063E-4
30 111 3.4766316169206583E-4
30 112 3.175637321289198E-4
30 113 2.8974808198221224E-4
30 114 2.64075245893548E-4
30 115 2.404098549935424E-4
30 116 2.186222153105597E-4
30 117 1.9858834912484408E-4
30 118 1.801900023241393E-4
30 119 1.6331462079362345E-4
30 120 1.478552988261544E-4
30 121 1.3371070247100844E-4
30 122 1.2078497065307907E-4
30 123 1.0898759679241744E-4
30 124 9.8233293538506E-5
30 125 8.844184310713185E-5
30 126 7.953793557242816E-5
30 127 7.145099732471724E-5
30 128 6.41150117582164E-5
30 129 5.746833410330014E-5
30 130 5.1453502167554E-5
31 1 1.5876262865894858E-2
31 2 1.5876847067515652E-2
31 3 1.5877973762561944E-2
31 4 1.5879559894754265E-2
31 5 1.5881481776710567E-2
31 6 1.588357615734975E-2
31 7 1.5885641630125145E-2
31 8 1.5887440369449203E-2
31 9 1.588870017975036E-2
31 10 1.5889116838838424E-2
31 11 1.5888356714673486E-2
31 12 1.5886059632260044E-2
31 13 1.588184196524607E-2
31 14 1.5875299924916358E-2
31 15 1.5866013017648558E-2
31 16 1.5853547640563122E-2
31 17 1.5837460784057004E-2
31 18 1.581730380917338E-2
31 19 1.5792626267331307E-2
31 20 1.5762979729821595E-2
31 21 1.572792159466688E-2
31 22 1.568701883894018E-2
31 23 1.563985168542888E-2
31 24 1.5586017153609232E-2
31 25 1.5525132466246021E-2
31 26 1.5456838284536232E-2
31 27 1.5380801746555156E-2
31 28 1.5296719285816902E-2
31 29 1.520431920900506E-2
31 30 1.5103364014338132E-2
31 31 1.4993652434581667E-2
31 32 1.4875021191376963E-2
31 33 1.4747346450296253E-2
31 34 1.4610544968827556E-2
31 35 1.4464574932309819E-2
31 36 1.4309436475651834E-2
31 37 1.4145171891448316E-2
31 38 1.397186552782643E-2
31 39 1.3789643381989493E-2
31 40 1.359867239794702E-2
31 41 1.3399159479308647E-2
31 42 1.3191350230252703E-2
31 43 1.2975527439839341E-2
31 44 1.2752009326706708E-2
31 45 1.2521147562852095E-2
31 46 1.2283325096647237E-2
31 47 1.2038953796458543E-2
31 48 1.178847193723279E-2
31 49 1.1532341553163267E-2
31 50 1.127104568006924E-2
31 51 1.1005085511404665E-2
31 52 1.0734977491864344E-2
31 53 1.046125037238375E-2
31 54 1.018444224994106E-2
31 55 9.905097614977524E-3
31 56 9.623764428467768E-3
31 57 9.340991249709009E-3
31 58 9.05732443477383E-3
31 59 8.77330542430155E-3
31 60 8.48946813790652E-3
31 61 8.206336490976763E-3
31 62 7.924422048042185E-3
31 63 7.644221825227704E-3
31 64 7.366216252592523E-3
31 65 7.0908673054117044E-3
31 66 6.818616811698831E-3
31 67 6.54988494151726E-3
31 68 6.285068881899379E-3
31 69 6.0245416995049934E-3
31 70 5.717197889348822E-3
31 71 5.471703079103E-3
31 72 5.230934364960887E-3
31 73 4.995206766193312E-3
31 74 4.76480486080035E-3
31 75 4.53998292177005E-3
31 76 4.32096521145483E-3
31 77 4.107946424861764E-3
31 78 3.901092271952699E-3
31 79 3.7005401884686075E-3
31 80 3.5064001643299895E-3
31 81 3.3187556783199905E-3
31 82 3.1376647275268414E-3
31 83 2.9631609399036283E-3
31 84 2.795254758291549E-3
31 85 2.633934684342309E-3
31 86 2.4791685709596527E-3
31 87 2.330904952152349E-3
31 88 2.1890743995435897E-3
31 89 2.0535908952067335E-3
31 90 1.9243532109863046E-3
31 91 1.8012462850076334E-3
31 92 1.6841425866698377E-3
31 93 1.5729034620464647E-3
31 94 1.4673804522774983E-3
31 95 1.367416578217387E-3
31 96 1.2728475852982531E-3
31 97 1.183503143267951E-3
31 98 1.0992079961619481E-3
31 99 1.0197830585595082E-3
31 100 9.450464548521614E-4
31 101 8.748144989104668E-4
31 102 8.089026121686099E-4
31 103 7.471261787510978E-4
31 104 6.893013368380249E-4
31 105 6.352457060019391E-4
31 106 5.847790507477894E-4
31 107 5.377238809458774E-4
31 108 4.939059902648149E-4
31 109 4.531549340864822E-4
31 110 4.153044487175457E-4
31 111 3.801928140025063E-4
31 112 3.4766316169206583E-4
31 113 3.175637321289198E-4
31 114 2.8974808198221224E-4
31 115 2.64075245893548E-4
31 116 2.404098549935424E-4
31 117 2.186222153105597E-4
31 118 1.9858834912484408E-4
31 119 1.801900023241393E-4
31 120 1.6331462079362345E-4
31 121 1.478552988261544E-4
31 122 1.3371070247100844E-4
31 123 1.2078497065307907E-4
31 124 1.0898759679241744E-4
31 125 9.8233293538506E-5
31 126 8.844184310713185E-5
31 127 7.953793557242816E-5
31 128 7.145099732471724E-5
31 129 6.41150117582164E-5
31 130 5.746833410330014E-5
31 131 5.1453502167554E-5
32 1 1.5338871305824394E-2
32 2 1.5340608747559771E-2
32 3 1.5344038301384939E-2
32 4 1.534906967963433E-2
32 5 1.5355568376642233E-2
32 6 1.5363356770725325E-2
32 7 1.5372215578558902E-2
32 8 1.5381885649332804E-2
32 9 1.5392070083150512E-2
32 10 1.5402436655362426E-2
32 11 1.5412620525928736E-2
32 12 1.542222721051295E-2
32 13 1.5430835787836782E-2
32 14 1.5438002315900552E-2
32 15 1.5443263428008072E-2
32 16 1.5446140078146427E-2
32 17 1.5446141404169967E-2
32 18 1.5442768676434293E-2
32 19 1.543551929902476E-2
32 20 1.5423890830528158E-2
32 21 1.5407384991405234E-2
32 22 1.5385511625431586E-2
32 23 1.5357792583378863E-2
32 24 1.5323765498096985E-2
32 25 1.5282987421419272E-2
32 26 1.5235038294829958E-2
32 27 1.5179524227590616E-2
32 28 1.511608055799787E-2
32 29 1.5044374675617802E-2
32 30 1.4964108584688593E-2
32 31 1.4875021191376963E-2
32 32 1.4776890300189329E-2
32 33 1.4669534307547886E-2
32 34 1.4552813583317009E-2
32 35 1.442663153387812E-2
32 36 1.4290935343173513E-2
32 37 1.4145716390943391E-2
32 38 1.399101035013853E-2
32 39 1.3826896968177389E-2
32 40 1.3653499539305941E-2
32 41 1.3470984077787651E-2
32 42 1.3279558203978062E-2
32 43 1.3079469757503544E-2
32 44 1.2871005153749107E-2
32 45 1.2654487501650647E-2
32 46 1.243027450236912E-2
32 47 1.2198756149787842E-2
32 48 1.1960352254911273E-2
32 49 1.1715509817148813E-2
32 50 1.1464700266137787E-2
32 51 1.1208416598195653E-2
32 52 1.0947170431694811E-2
32 53 1.0681489005628972E-2
32 54 1.041191214539508E-2
32 55 1.0138989219358071E-2
32 56 9.863276109108827E-3
32 57 9.585332215481348E-3
32 58 9.305717521377786E-3
32 59 9.024989731275844E-3
32 60 8.743701505978935E-3
32 61 8.462397809733445E-3
32 62 8.181613385298171E-3
32 63 7.901870370927612E-3
32 64 7.623676071542419E-3
32 65 7.347520894626446E-3
32 66 7.07387645962929E-3
32 67 6.80319388788462E-3
32 68 6.535902278295843E-3
32 69 6.220953870141162E-3
32 70 5.967073365401693E-3
32 71 5.717197889348822E-3
32 72 5.471703079103E-3
32 73 5.230934364960887E-3
32 74 4.995206766193312E-3
32 75 4.76480486080035E-3
32 76 4.53998292177005E-3
32 77 4.32096521145483E-3
32 78 4.107946424861764E-3
32 79 3.901092271952699E-3
32 80 3.7005401884686075E-3
32 81 3.5064001643299895E-3
32 82 3.3187556783199905E-3
32 83 3.1376647275268414E-3
32 84 2.9631609399036283E-3
32 85 2.795254758291549E-3
32 86 2.633934684342309E-3
32 87 2.4791685709596527E-3
32 88 2.330904952152349E-3
32 89 2.1890743995435897E-3
32 90 2.0535908952067335E-3
32 91 1.9243532109863046E-3
32 92 1.8012462850076334E-3
32 93 1.6841425866698377E-3
32 94 1.5729034620464647E-3
32 95 1.4673804522774983E-3
32 96 1.367416578217387E-3
32 97 1.2728475852982531E-3
32 98 1.183503143267951E-3
32 99 1.0992079961619481E-3
32 100 1.0197830585595082E-3
32 101 9.450464548521614E-4
32 102 8.748144989104668E-4
32 103 8.089026121686099E-4
32 104 7.471261787510978E-4
32 105 6.893013368380249E-4
32 106 6.352457060019391E-4
32 107 5.847790507477894E-4
32 108 5.377238809458774E-4
32 109 4.939059902648149E-4
32 110 4.531549340864822E-4
32 111 4.153044487175457E-4
32 112 3.801928140025063E-4
32 113 3.4766316169206583E-4
32 114 3.175637321289198E-4
32 115 2.8974808198221224E-4
32 116 2.64075245893548E-4
32 117 2.404098549935424E-4
32 118 2.186222153105597E-4
32 119 1.9858834912484408E-4
32 120 1.801900023241393E-4
32 121 1.6331462079362345E-4
32 122 1.478552988261544E-4
32 123 1.3371070247100844E-4
32 124 1.2078497065307907E-4
32 125 1.0898759679241744E-4
32 126 9.8233293538506E-5
32 127 8.844184310713185E-5
32 128 7.953793557242816E-5
32 129 7.145099732471724E-5
32 130 6.41150117582164E-5
32 131 5.746833410330014E-5
32 132 5.1453502167554E-5
33 1 1.4803217187489306E-2
33 2 1.4806062539693679E-2
33 3 1.4811704664632157E-2
33 4 1.4820046783272908E-2
33 5 1.4830944673649088E-2
33 6 1.4844207797851384E-2
33 7 1.4859600789932986E-2
33 8 1.4876845292260209E-2
33 9 1.4895622124944868E-2
33 10 1.4915573770240824E-2
33 11 1.4936307151201889E-2
33 12 1.4957396681505475E-2
33 13 1.4978387561167428E-2
33 14 1.4998799290928497E-2
33 15 1.5018129376398421E-2
33 16 1.5035857191614915E-2
33 17 1.5051447970523716E-2
33 18 1.506435689402135E-2
33 19 1.5074033239631145E-2
33 20 1.5079924560608398E-2
33 21 1.5081480861292865E-2
33 22 1.5078158735843915E-2
33 23 1.5069425438099691E-2
33 24 1.5054762851188903E-2
33 25 1.5033671326680922E-2
33 26 1.5005673364473657E-2
33 27 1.4970317106272673E-2
33 28 1.4927179617391517E-2
33 29 1.4875869933681403E-2
33 30 1.4816031852656633E-2
33 31 1.4747346450296253E-2
33 32 1.4669534307547886E-2
33 33 1.4582357433210083E-2
33 34 1.448562087259845E-2
33 35 1.4379173994180703E-2
33 36 1.4262911449169677E-2
33 37 1.4136773801863727E-2
33 38 1.400074783129435E-2
33 39 1.3854866507454978E-2
33 40 1.369920864801802E-2
33 41 1.3533898263975356E-2
33 42 1.3359103605038492E-2
33 43 1.3175035917887828E-2
33 44 1.2981947932447483E-2
33 45 1.2780132093266132E-2
33 46 1.2569918554791252E-2
33 47 1.235167296082185E-2
33 48 1.2125794029703865E-2
33 49 1.1892710967885793E-2
33 50 1.1652880735275227E-2
33 51 1.1406785186427933E-2
33 52 1.1154928111960281E-2
33 53 1.089783220470614E-2
33 54 1.0636035975045983E-2
33 55 1.0370090639526383E-2
33 56 1.0100557006371651E-2
33 57 9.828002380777606E-3
33 58 9.552997511983363E-3
33 59 9.276113603055173E-3
33 60 8.99791940310277E-3
33 61 8.718978400300344E-3
33 62 8.439846132618872E-3
33 63 8.161067631612886E-3
33 64 7.883175012961534E-3
33 65 7.606685225760005E-3
33 66 7.3320979708122345E-3
33 67 7.059893796407873E-3
33 68 6.739078876126403E-3
33 69 6.478433944192542E-3
33 70 6.220953870141162E-3
33 71 5.967073365401693E-3
33 72 5.717197889348822E-3
33 73 5.471703079103E-3
33 74 5.230934364960887E-3
33 75 4.995206766193312E-3
33 76 4.76480486080035E-3
33 77 4.53998292177005E-3
33 78 4.32096521145483E-3
33 79 4.107946424861764E-3
33 80 3.901092271952699E-3
33 81 3.7005401884686075E-3
33 82 3.5064001643299895E-3
33 83 3.3187556783199905E-3
33 84 3.1376647275268414E-3
33 85 2.9631609399036283E-3
33 86 2.795254758291549E-3
33 87 2.633934684342309E-3
33 88 2.4791685709596527E-3
33 89 2.330904952152349E-3
33 90 2.1890743995435897E-3
33 91 2.0535908952067335E-3
33 92 1.9243532109863046E-3
33 93 1.8012462850076334E-3
33 94 1.6841425866698377E-3
33 95 1.5729034620464647E-3
33 96 1.4673804522774983E-3
33 97 1.367416578217387E-3
33 98 1.2728475852982531E-3
33 99 1.183503143267951E-3
33 100 1.0992079961619481E-3
33 101 1.0197830585595082E-3
33 102 9.450464548521614E-4
33 103 8.748144989104668E-4
33 104 8.089026121686099E-4
33 105 7.471261787510978E-4
33 106 6.893013368380249E-4
33 107 6.352457060019391E-4
33 108 5.847790507477894E-4
33 109 5.377238809458774E-4
33 110 4.939059902648149E-4
33 111 4.531549340864822E-4
33 112 4.153044487175457E-4
33 113 3.801928140025063E-4
33 114 3.4766316169206583E-4
33 115 3.175637321289198E-4
33 116 2.8974808198221224E-4
33 117 2.64075245893548E-4
33 118 2.404098549935424E-4
33 119 2.186222153105597E-4
33 120 1.9858834912484408E-4
33 121 1.801900023241393E-4
33 122 1.6331462079362345E-4
33 123 1.478552988261544E-4
33 124 1.3371070247100844E-4
33 125 1.2078497065307907E-4
33 126 1.0898759679241744E-4
33 127 9.8233293538506E-5
33 128 8.844184310713185E-5
33 129 7.953793557242816E-5
33 130 7.145099732471724E-5
33 131 6.41150117582164E-5
33 132 5.746833410330014E-5
33 133 5.1453502167554E-5
34 1 1.427040842135859E-2
34 2 1.427431310456169E-2
34 3 1.4282071021581648E-2
34 4 1.4293579658646915E-2
34 5 1.4308686204482059E-2
34 6 1.4327188692856749E-2
34 7 1.434883751155269E-2
34 8 1.4373337265545051E-2
34 9 1.4400348979350521E-2
34 10 1.4429492620784332E-2
34 11 1.4460349925817562E-2
34 12 1.4492467501856367E-2
34 13 1.452536018459719E-2
34 14 1.4558514621665297E-2
34 15 1.4591393054535341E-2
34 16 1.462343726877571E-2
34 17 1.4654072681466297E-2
34 18 1.4682712533720568E-2
34 19 1.4708762155604987E-2
34 20 1.4731623270395854E-2
34 21 1.475069830504708E-2
34 22 1.476539467396097E-2
34 23 1.4775129003653954E-2
34 24 1.4779331266683628E-2
34 25 1.4777448794243288E-2
34 26 1.4768950138123637E-2
34 27 1.4753328754274556E-2
34 28 1.4730106481956206E-2
34 29 1.4698836794430348E-2
34 30 1.4659107799289063E-2
34 31 1.4610544968827556E-2
34 32 1.4552813583317009E-2
34 33 1.448562087259845E-2
34 34 1.4408717844073778E-2
34 35 1.4321900787890007E-2
34 36 1.4225012452870917E-2
34 37 1.4117942889520636E-2
34 38 1.4000629959180175E-2
34 39 1.3873059511134982E-2
34 40 1.3735265232124393E-2
34 41 1.3587328175268861E-2
34 42 1.3429375977885122E-2
34 43 1.326158177998243E-2
34 44 1.3084162857404854E-2
34 45 1.2897378985588088E-2
34 46 1.2701530551718862E-2
34 47 1.2496956434707275E-2
34 48 1.228403167379637E-2
34 49 1.2063164947830279E-2
34 50 1.183479588817594E-2
34 51 1.1599392249039855E-2
34 52 1.1357446959439263E-2
34 53 1.1109475081377293E-2
34 54 1.0856010698837444E-2
34 55 1.0597603762059564E-2
34 56 1.0334816911195161E-2
34 57 1.0068222302873665E-2
34 58 9.79839846245499E-3
34 59 9.525927183810288E-3
34 60 9.25139049737658E-3
34 61 8.975367725988196E-3
34 62 8.698432646615059E-3
34 63 8.421150774652794E-3
34 64 8.14407678583047E-3
34 65 7.867752089147322E-3
34 66 7.5927025625385875E-3
34 67 7.267982959054018E-3
34 68 7.002425462304573E-3
34 69 6.739078876126403E-3
34 70 6.478433944192542E-3
34 71 6.220953870141162E-3
34 72 5.967073365401693E-3
34 73 5.717197889348822E-3
34 74 5.471703079103E-3
34 75 5.230934364960887E-3
34 76 4.995206766193312E-3
34 77 4.76480486080035E-3
34 78 4.53998292177005E-3
34 79 4.32096521145483E-3
34 80 4.107946424861764E-3
34 81 3.901092271952699E-3
34 82 3.7005401884686075E-3
34 83 3.5064001643299895E-3
34 84 3.3187556783199905E-3
34 85 3.1376647275268414E-3
34 86 2.9631609399036283E-3
34 87 2.795254758291549E-3
34 88 2.633934684342309E-3
34 89 2.4791685709596527E-3
34 90 2.330904952152349E-3
34 91 2.1890743995435897E-3
34 92 2.0535908952067335E-3
34 93 1.9243532109863046E-3
34 94 1.8012462850076334E-3
34 95 1.6841425866698377E-3
34 96 1.5729034620464647E-3
34 97 1.4673804522774983E-3
34 98 1.367416578217387E-3
34 99 1.2728475852982531E-3
34 100 1.183503143267951E-3
34 101 1.0992079961619481E-3
34 102 1.0197830585595082E-3
34 103 9.450464548521614E-4
34 104 8.748144989104668E-4
34 105 8.089026121686099E-4
34 106 7.471261787510978E-4
34 107 6.893013368380249E-4
34 108 6.352457060019391E-4
34 109 5.847790507477894E-4
34 110 5.377238809458774E-4
34 111 4.939059902648149E-4
34 112 4.531549340864822E-4
34 113 4.153044487175457E-4
34 114 3.801928140025063E-4
34 115 3.4766316169206583E-4
34 116 3.175637321289198E-4
34 117 2.8974808198221224E-4
34 118 2.64075245893548E-4
34 119 2.404098549935424E-4
34 120 2.186222153105597E-4
34 121 1.9858834912484408E-4
34 122 1.801900023241393E-4
34 123 1.6331462079362345E-4
34 124 1.478552988261544E-4
34 125 1.3371070247100844E-4
34 126 1.2078497065307907E-4
34 127 1.0898759679241744E-4
34 128 9.8233293538506E-5
34 129 8.844184310713185E-5
34 130 7.953793557242816E-5
34 131 7.145099732471724E-5
34 132 6.41150117582164E-5
34 133 5.746833410330014E-5
34 134 5.1453502167554E-5
35 1 1.3741504338430976E-2
35 2 1.374641690324656E-2
35 3 1.3756188098576448E-2
35 4 1.3770710442790799E-2
35 5 1.3789823677854576E-2
35 6 1.3813315918183366E-2
35 7 1.3840925168468812E-2
35 8 1.3872341198643003E-2
35 9 1.3907207761384514E-2
35 10 1.394512513492726E-2
35 11 1.3985652971438813E-2
35 12 1.4028313428909277E-2
35 13 1.4072594562354237E-2
35 14 1.4117953948204032E-2
35 15 1.416382251404259E-2
35 16 1.4209608544386724E-2
35 17 1.4254701831972562E-2
35 18 1.4298477943049935E-2
35 19 1.4340302564485277E-2
35 20 1.4379535900043669E-2
35 21 1.4415537083063958E-2
35 22 1.444766857285712E-2
35 23 1.4475300502544907E-2
35 24 1.4497814946708338E-2
35 25 1.4514610078126343E-2
35 26 1.4525104184044187E-2
35 27 1.452873951380717E-2
35 28 1.4524985931313386E-2
35 29 1.4513344347563868E-2
35 30 1.449334991060127E-2
35 31 1.4464574932309819E-2
35 32 1.442663153387812E-2
35 33 1.4379173994180703E-2
35 34 1.4321900787890007E-2
35 35 1.425455630276399E-2
35 36 1.4176932228240966E-2
35 37 1.4088868610187365E-2
35 38 1.3990254569361267E-2
35 39 1.388102868384959E-2
35 40 1.3761179038385822E-2
35 41 1.3630742946034159E-2
35 42 1.34898063502128E-2
35 43 1.3338502917402148E-2
35 44 1.3177012833123036E-2
35 45 1.3005561315857584E-2
35 46 1.2824416865504111E-2
35 47 1.2633889264693382E-2
35 48 1.243432735283369E-2
35 49 1.2226116594086517E-2
35 50 1.2009676461594907E-2
35 51 1.1785457661187269E-2
35 52 1.1553939218456866E-2
35 53 1.1315625453570566E-2
35 54 1.1071042868390873E-2
35 55 1.0820736970506221E-2
35 56 1.0565269058561578E-2
35 57 1.0305212992872547E-2
35 58 1.0041151974700591E-2
35 59 9.773675356776399E-3
35 60 9.503375506695715E-3
35 61 9.230844743691296E-3
35 62 8.956672368022119E-3
35 63 8.681441800832643E-3
35 64 8.405727850838582E-3
35 65 8.130094122609054E-3
35 66 7.803637077389106E-3
35 67 7.535234228435287E-3
35 68 7.267982959054018E-3
35 69 7.002425462304573E-3
35 70 6.739078876126403E-3
35 71 6.478433944192542E-3
35 72 6.220953870141162E-3
35 73 5.967073365401693E-3
35 74 5.717197889348822E-3
35 75 5.471703079103E-3
35 76 5.230934364960887E-3
35 77 4.995206766193312E-3
35 78 4.76480486080035E-3
35 79 4.53998292177005E-3
35 80 4.32096521145483E-3
35 81 4.107946424861764E-3
35 82 3.901092271952699E-3
35 83 3.7005401884686075E-3
35 84 3.5064001643299895E-3
35 85 3.3187556783199905E-3
35 86 3.1376647275268414E-3
35 87 2.9631609399036283E-3
35 88 2.795254758291549E-3
35 89 2.633934684342309E-3
35 90 2.4791685709596527E-3
35 91 2.330904952152349E-3
35 92 2.1890743995435897E-3
35 93 2.0535908952067335E-3
35 94 1.9243532109863046E-3
35 95 1.8012462850076334E-3
35 96 1.6841425866698377E-3
35 97 1.5729034620464647E-3
35 98 1.4673804522774983E-3
35 99 1.367416578217387E-3
35 100 1.2728475852982531E-3
35 101 1.183503143267951E-3
35 102 1.0992079961619481E-3
35 103 1.0197830585595082E-3
35 104 9.450464548521614E-4
35 105 8.748144989104668E-4
35 106 8.089026121686099E-4
35 107 7.471261787510978E-4
35 108 6.893013368380249E-4
35 109 6.352457060019391E-4
35 110 5.847790507477894E-4
35 111 5.377238809458774E-4
35 112 4.939059902648149E-4
35 113 4.531549340864822E-4
35 114 4.153044487175457E-4
35 115 3.801928140025063E-4
35 116 3.4766316169206583E-4
35 117 3.175637321289198E-4
35 118 2.8974808198221224E-4
35 119 2.64075245893548E-4
35 120 2.404098549935424E-4
35 121 2.186222153105597E-4
35 122 1.9858834912484408E-4
35 123 1.801900023241393E-4
35 124 1.6331462079362345E-4
35 125 1.478552988261544E-4
35 126 1.3371070247100844E-4
35 127 1.2078497065307907E-4
35 128 1.0898759679241744E-4
35 129 9.8233293538506E-5
35 130 8.844184310713185E-5
35 131 7.953793557242816E-5
35 132 7.145099732471724E-5
35 133 6.41150117582164E-5
35 134 5.746833410330014E-5
35 135 5.1453502167554E-5
36 1 1.3217512820318945E-2
36 2 1.3223379332445735E-2
36 3 1.323505632445571E-2
36 4 1.325243211778411E-2
36 5 1.3275340156492106E-2
36 6 1.3303560153466641E-2
36 7 1.3336819605273678E-2
36 8 1.3374795664308277E-2
36 9 1.341711735421974E-2
36 10 1.3463368112038993E-2
36 11 1.3513088638018974E-2
36 12 1.3565780031936682E-2
36 13 1.362090719251612E-2
36 14 1.3677902454731529E-2
36 15 1.3736169438055414E-2
36 16 1.379508707723944E-2
36 17 1.3854013805970362E-2
36 18 1.391229186273727E-2
36 19 1.3969251687488617E-2
36 20 1.402421637715338E-2
36 21 1.407650616785371E-2
36 22 1.4125442911647895E-2
36 23 1.4170354515911504E-2
36 24 1.4210579313987622E-2
36 25 1.4245470336509239E-2
36 26 1.4274399453809875E-2
36 27 1.4296761361083017E-2
36 28 1.431197737941483E-2
36 29 1.431949904748431E-2
36 30 1.4318811480584621E-2
36 31 1.4309436475651834E-2
36 32 1.4290935343173513E-2
36 33 1.4262911449169677E-2
36 34 1.4225012452870917E-2
36 35 1.4176932228240966E-2
36 36 1.411841246008044E-2
36 37 1.4049243908081597E-2
36 38 1.396926733485678E-2
36 39 1.3878374096612108E-2
36 40 1.3776506397759356E-2
36 41 1.3663657213329761E-2
36 42 1.3539869885551184E-2
36 43 1.3405237403353405E-2
36 44 1.3259901375854878E-2
36 45 1.3104050713039059E-2
36 46 1.2937920028832104E-2
36 47 1.2761787783630525E-2
36 48 1.2575974184983529E-2
36 49 1.2380838866598317E-2
36 50 1.2176778367097846E-2
36 51 1.1964223431011918E-2
36 52 1.1743636155318572E-2
36 53 1.1515507005470446E-2
36 54 1.1280351725239345E-2
36 55 1.1038708164892887E-2
36 56 1.0791133052183608E-2
36 57 1.0538198730388504E-2
36 58 1.0280489887193956E-2
36 59 1.0018600297586017E-2
36 60 9.753129603091115E-3
36 61 9.484680148729637E-3
36 62 9.21385389790888E-3
36 63 8.941249444207907E-3
36 64 8.667459137611227E-3
36 65 8.341612839080366E-3
36 66 8.072625788505754E-3
36 67 7.803637077389106E-3
36 68 7.535234228435287E-3
36 69 7.267982959054018E-3
36 70 7.002425462304573E-3
36 71 6.739078876126403E-3
36 72 6.478433944192542E-3
36 73 6.220953870141162E-3
36 74 5.967073365401693E-3
36 75 5.717197889348822E-3
36 76 5.471703079103E-3
36 77 5.230934364960887E-3
36 78 4.995206766193312E-3
36 79 4.76480486080035E-3
36 80 4.53998292177005E-3
36 81 4.32096521145483E-3
36 82 4.107946424861764E-3
36 83 3.901092271952699E-3
36 84 3.7005401884686075E-3
36 85 3.5064001643299895E-3
36 86 3.3187556783199905E-3
36 87 3.1376647275268414E-3
36 88 2.9631609399036283E-3
36 89 2.795254758291549E-3
36 90 2.633934684342309E-3
36 91 2.4791685709596527E-3
36 92 2.330904952152349E-3
36 93 2.1890743995435897E-3
36 94 2.0535908952067335E-3
36 95 1.9243532109863046E-3
36 96 1.8012462850076334E-3
36 97 1.6841425866698377E-3
36 98 1.5729034620464647E-3
36 99 1.4673804522774983E-3
36 100 1.367416578217387E-3
36 101 1.2728475852982531E-3
36 102 1.183503143267951E-3
36 103 1.0992079961619481E-3
36 104 1.0197830585595082E-3
36 105 9.450464548521614E-4
36 106 8.748144989104668E-4
36 107 8.089026121686099E-4
36 108 7.471261787510978E-4
36 109 6.893013368380249E-4
36 110 6.352457060019391E-4
36 111 5.847790507477894E-4
36 112 5.377238809458774E-4
36 113 4.939059902648149E-4
36 114 4.531549340864822E-4
36 115 4.153044487175457E-4
36 116 3.801928140025063E-4
36 117 3.4766316169206583E-4
36 118 3.175637321289198E-4
36 119 2.8974808198221224E-4
36 120 2.64075245893548E-4
36 121 2.404098549935424E-4
36 122 2.186222153105597E-4
36 123 1.9858834912484408E-4
36 124 1.801900023241393E-4
36 125 1.6331462079362345E-4
36 126 1.478552988261544E-4
36 127 1.3371070247100844E-4
36 128 1.2078497065307907E-4
36 129 1.0898759679241744E-4
36 130 9.8233293538506E-5
36 131 8.844184310713185E-5
36 132 7.953793557242816E-5
36 133 7.145099732471724E-5
36 134 6.41150117582164E-5
36 135 5.746833410330014E-5
36 136 5.1453502167554E-5
37 1 1.2699387814333704E-2
37 2 1.2706152241528096E-2
37 3 1.2719623351653395E-2
37 4 1.2739686038157018E-2
37 5 1.2766168593396174E-2
37 6 1.2798843843582418E-2
37 7 1.2837430649306104E-2
37 8 1.2881595760850417E-2
37 9 1.2930956014962757E-2
37 10 1.2985080857311454E-2
37 11 1.3043495172536862E-2
37 12 1.3105682401625816E-2
37 13 1.317108792431397E-2
37 14 1.3239122682367502E-2
37 15 1.330916701792838E-2
37 16 1.3380574699639053E-2
37 17 1.3452677108004147E-2
37 18 1.3524787550409043E-2
37 19 1.3596205675405374E-2
37 20 1.3666221955298655E-2
37 21 1.3734122205737317E-2
37 22 1.3799192110908094E-2
37 23 1.386072172309061E-2
37 24 1.3918009905712403E-2
37 25 1.3970368689671154E-2
37 26 1.401712751354807E-2
37 27 1.4057637319417535E-2
37 28 1.409127447725394E-2
37 29 1.4117444512435585E-2
37 30 1.4135585612534873E-2
37 31 1.4145171891448316E-2
37 32 1.4145716390943391E-2
37 33 1.4136773801863727E-2
37 34 1.4117942889520636E-2
37 35 1.4088868610187365E-2
37 36 1.4049243908081597E-2
37 37 1.3998811184749854E-2
37 38 1.3937363435332438E-2
37 39 1.3864745048766546E-2
37 40 1.3780852271556046E-2
37 41 1.3685633337276381E-2
37 42 1.3579088266470366E-2
37 43 1.3461268344003914E-2
37 44 1.3332275283269428E-2
37 45 1.3192260088829398E-2
37 46 1.3041421631165473E-2
37 47 1.288000494912225E-2
37 48 1.2708299297395153E-2
37 49 1.2526635957994858E-2
37 50 1.2335385836015329E-2
37 51 1.213495686122915E-2
37 52 1.1925791218025499E-2
37 53 1.1708362426987352E-2
37 54 1.148317230197246E-2
37 55 1.125074780691673E-2
37 56 1.1011637836719813E-2
37 57 1.0766409946505016E-2
37 58 1.051564705327393E-2
37 59 1.0259944133508671E-2
37 60 9.99990493961994E-3
37 61 9.736138757308698E-3
37 62 9.469257224915425E-3
37 63 9.199871234687464E-3
37 64 8.87713443244969E-3
37 65 8.609990803507927E-3
37 66 8.341612839080366E-3
37 67 8.072625788505754E-3
37 68 7.803637077389106E-3
37 69 7.535234228435287E-3
37 70 7.267982959054018E-3
37 71 7.002425462304573E-3
37 72 6.739078876126403E-3
37 73 6.478433944192542E-3
37 74 6.220953870141162E-3
37 75 5.967073365401693E-3
37 76 5.717197889348822E-3
37 77 5.471703079103E-3
37 78 5.230934364960887E-3
37 79 4.995206766193312E-3
37 80 4.76480486080035E-3
37 81 4.53998292177005E-3
37 82 4.32096521145483E-3
37 83 4.107946424861764E-3
37 84 3.901092271952699E-3
37 85 3.7005401884686075E-3
37 86 3.5064001643299895E-3
37 87 3.3187556783199905E-3
37 88 3.1376647275268414E-3
37 89 2.9631609399036283E-3
37 90 2.795254758291549E-3
37 91 2.633934684342309E-3
37 92 2.4791685709596527E-3
37 93 2.330904952152349E-3
37 94 2.1890743995435897E-3
37 95 2.0535908952067335E-3
37 96 1.9243532109863046E-3
37 97 1.8012462850076334E-3
37 98 1.6841425866698377E-3
37 99 1.5729034620464647E-3
37 100 1.4673804522774983E-3
37 101 1.367416578217387E-3
37 102 1.2728475852982531E-3
37 103 1.183503143267951E-3
37 104 1.0992079961619481E-3
37 105 1.0197830585595082E-3
37 106 9.450464548521614E-4
37 107 8.748144989104668E-4
37 108 8.089026121686099E-4
37 109 7.471261787510978E-4
37 110 6.893013368380249E-4
37 111 6.352457060019391E-4
37 112 5.847790507477894E-4
37 113 5.377238809458774E-4
37 114 4.939059902648149E-4
37 115 4.531549340864822E-4
37 116 4.153044487175457E-4
37 117 3.801928140025063E-4
37 118 3.4766316169206583E-4
37 119 3.175637321289198E-4
37 120 2.8974808198221224E-4
37 121 2.64075245893548E-4
37 122 2.404098549935424E-4
37 123 2.186222153105597E-4
37 124 1.9858834912484408E-4
37 125 1.801900023241393E-4
37 126 1.6331462079362345E-4
37 127 1.478552988261544E-4
37 128 1.3371070247100844E-4
37 129 1.2078497065307907E-4
37 130 1.0898759679241744E-4
37 131 9.8233293538506E-5
37 132 8.844184310713185E-5
37 133 7.953793557242816E-5
37 134 7.145099732471724E-5
37 135 6.41150117582164E-5
37 136 5.746833410330014E-5
37 137 5.1453502167554E-5
38 1 1.2188027235542855E-2
38 2 1.2195631833541365E-2
38 3 1.2210781955229403E-2
38 4 1.223335982726546E-2
38 5 1.226318972524733E-2
38 6 1.2300039089235638E-2
38 7 1.2343619999159155E-2
38 8 1.2393590999960583E-2
38 9 1.2449559263942131E-2
38 10 1.2511083075460627E-2
38 11 1.2577674620918298E-2
38 12 1.2648803064914154E-2
38 13 1.2723897891477199E-2
38 14 1.2802352487510823E-2
38 15 1.288352794395114E-2
38 16 1.2966757048693087E-2
38 17 1.3051348444077734E-2
38 18 1.3136590920672252E-2
38 19 1.3221757818219083E-2
38 20 1.3306111503989311E-2
38 21 1.338890789835304E-2
38 22 1.3469401017180032E-2
38 23 1.3546847500708992E-2
38 24 1.3620511098774142E-2
38 25 1.3689667082751234E-2
38 26 1.3753606555278814E-2
38 27 1.3811640629718992E-2
38 28 1.3863104452438291E-2
38 29 1.3907361042304504E-2
38 30 1.394380492329928E-2
38 31 1.397186552782643E-2
38 32 1.399101035013853E-2
38 33 1.400074783129435E-2
38 34 1.4000629959180175E-2
38 35 1.3990254569361267E-2
38 36 1.396926733485678E-2
38 37 1.3937363435332438E-2
38 38 1.389428889865962E-2
38 39 1.3839841610276377E-2
38 40 1.3773871988283571E-2
38 41 1.3696283324696652E-2
38 42 1.3607031795729111E-2
38 43 1.350612614638639E-2
38 44 1.3393627056978434E-2
38 45 1.3269646201395842E-2
38 46 1.3134345009119544E-2
38 47 1.2987933144930101E-2
38 48 1.283066672213358E-2
38 49 1.2662846266812165E-2
38 50 1.2484814452126161E-2
38 51 1.2296953623028909E-2
38 52 1.2099683132897929E-2
38 53 1.1893456514527513E-2
38 54 1.1678758508664736E-2
38 55 1.1456101973799386E-2
38 56 1.1226024701238138E-2
38 57 1.0989086159605239E-2
38 58 1.0745864192819731E-2
38 59 1.0496951695307852E-2
38 60 1.0242953287726255E-2
38 61 9.984482015805728E-3
38 62 9.722156094087282E-3
38 63 9.405142213157209E-3
38 64 9.142402900584164E-3
38 65 8.87713443244969E-3
38 66 8.609990803507927E-3
38 67 8.341612839080366E-3
38 68 8.072625788505754E-3
38 69 7.803637077389106E-3
38 70 7.535234228435287E-3
38 71 7.267982959054018E-3
38 72 7.002425462304573E-3
38 73 6.739078876126403E-3
38 74 6.478433944192542E-3
38 75 6.220953870141162E-3
38 76 5.967073365401693E-3
38 77 5.717197889348822E-3
38 78 5.471703079103E-3
38 79 5.230934364960887E-3
38 80 4.995206766193312E-3
38 81 4.76480486080035E-3
38 82 4.53998292177005E-3
38 83 4.32096521145483E-3
38 84 4.107946424861764E-3
38 85 3.901092271952699E-3
38 86 3.7005401884686075E-3
38 87 3.5064001643299895E-3
38 88 3.3187556783199905E-3
38 89 3.1376647275268414E-3
38 90 2.9631609399036283E-3
38 91 2.795254758291549E-3
38 92 2.633934684342309E-3
38 93 2.4791685709596527E-3
38 94 2.330904952152349E-3
38 95 2.1890743995435897E-3
38 96 2.0535908952067335E-3
38 97 1.9243532109863046E-3
38 98 1.8012462850076334E-3
38 99 1.6841425866698377E-3
38 100 1.5729034620464647E-3
38 101 1.4673804522774983E-3
38 102 1.367416578217387E-3
38 103 1.2728475852982531E-3
38 104 1.183503143267951E-3
38 105 1.0992079961619481E-3
38 106 1.0197830585595082E-3
38 107 9.450464548521614E-4
38 108 8.748144989104668E-4
38 109 8.089026121686099E-4
38 110 7.471261787510978E-4
38 111 6.893013368380249E-4
38 112 6.352457060019391E-4
38 113 5.847790507477894E-4
38 114 5.377238809458774E-4
38 115 4.939059902648149E-4
38 116 4.531549340864822E-4
38 117 4.153044487175457E-4
38 118 3.801928140025063E-4
38 119 3.4766316169206583E-4
38 120 3.175637321289198E-4
38 121 2.8974808198221224E-4
38 122 2.64075245893548E-4
38 123 2.404098549935424E-4
38 124 2.186222153105597E-4
38 125 1.9858834912484408E-4
38 126 1.801900023241393E-4
38 127 1.6331462079362345E-4
38 128 1.478552988261544E-4
38 129 1.3371070247100844E-4
38 130 1.2078497065307907E-4
38 131 1.0898759679241744E-4
38 132 9.8233293538506E-5
38 133 8.844184310713185E-5
38 134 7.953793557242816E-5
38 135 7.145099732471724E-5
38 136 6.41150117582164E-5
38 137 5.746833410330014E-5
38 138 5.1453502167554E-5
39 1 1.1684271254750515E-2
39 2 1.1692656949244162E-2
39 3 1.170936830915343E-2
39 4 1.1734285642319715E-2
39 5 1.1767230323104923E-2
39 6 1.1807965880824067E-2
39 7 1.1856199439890117E-2
39 8 1.191158350225087E-2
39 9 1.1973718060458452E-2
39 10 1.2042153027548973E-2
39 11 1.2116390967837915E-2
39 12 1.219589011076968E-2
39 13 1.2280067628111005E-2
39 14 1.2368303153060837E-2
39 15 1.2459942518275532E-2
39 16 1.2554301688389821E-2
39 17 1.2650670861361192E-2
39 18 1.2748318711887772E-2
39 19 1.2846496749256189E-2
39 20 1.2944443761273468E-2
39 21 1.3041390315432026E-2
39 22 1.313656328815394E-2
39 23 1.3229190392863565E-2
39 24 1.3318504677747823E-2
39 25 1.3403748964381804E-2
39 26 1.3484180198922157E-2
39 27 1.355907368829957E-2
39 28 1.3627727194769556E-2
39 29 1.3689464863301986E-2
39 30 1.3743640957596061E-2
39 31 1.3789643381989493E-2
39 32 1.3826896968177389E-2
39 33 1.3854866507454978E-2
39 34 1.3873059511134982E-2
39 35 1.388102868384959E-2
39 36 1.3878374096612108E-2
39 37 1.3864745048766546E-2
39 38 1.3839841610276377E-2
39 39 1.3803415838176646E-2
39 40 1.3755272663416982E-2
39 41 1.3695270446736301E-2
39 42 1.3623321204612675E-2
39 43 1.3539390508703631E-2
39 44 1.3443497064512804E-2
39 45 1.333571197726858E-2
39 46 1.321615771516047E-2
39 47 1.3085006782130874E-2
39 48 1.2942480114347113E-2
39 49 1.2788845216264883E-2
39 50 1.2624414053825745E-2
39 51 1.244954072379494E-2
39 52 1.2264618919530923E-2
39 53 1.2070079214575313E-2
39 54 1.1866386186354438E-2
39 55 1.1654035402986145E-2
39 56 1.1433550296684813E-2
39 57 1.1205478947552854E-2
39 58 1.0970390801639161E-2
39 59 1.0728873347037315E-2
39 60 1.048152877149364E-2
39 61 1.0228970624504839E-2
39 62 9.920367004047512E-3
39 63 9.664687759983982E-3
39 64 9.405142213157209E-3
39 65 9.142402900584164E-3
39 66 8.87713443244969E-3
39 67 8.609990803507927E-3
39 68 8.341612839080366E-3
39 69 8.072625788505754E-3
39 70 7.803637077389106E-3
39 71 7.535234228435287E-3
39 72 7.267982959054018E-3
39 73 7.002425462304573E-3
39 74 6.739078876126403E-3
39 75 6.478433944192542E-3
39 76 6.220953870141162E-3
39 77 5.967073365401693E-3
39 78 5.717197889348822E-3
39 79 5.471703079103E-3
39 80 5.230934364960887E-3
39 81 4.995206766193312E-3
39 82 4.76480486080035E-3
39 83 4.53998292177005E-3
39 84 4.32096521145483E-3
39 85 4.107946424861764E-3
39 86 3.901092271952699E-3
39 87 3.7005401884686075E-3
39 88 3.5064001643299895E-3
39 89 3.3187556783199905E-3
39 90 3.1376647275268414E-3
39 91 2.9631609399036283E-3
39 92 2.795254758291549E-3
39 93 2.633934684342309E-3
39 94 2.4791685709596527E-3
39 95 2.330904952152349E-3
39 96 2.1890743995435897E-3
39 97 2.0535908952067335E-3
39 98 1.9243532109863046E-3
39 99 1.8012462850076334E-3
39 100 1.6841425866698377E-3
39 101 1.5729034620464647E-3
39 102 1.4673804522774983E-3
39 103 1.367416578217387E-3
39 104 1.2728475852982531E-3
39 105 1.183503143267951E-3
39 106 1.0992079961619481E-3
39 107 1.0197830585595082E-3
39 108 9.450464548521614E-4
39 109 8.748144989104668E-4
39 110 8.089026121686099E-4
39 111 7.471261787510978E-4
39 112 6.893013368380249E-4
39 113 6.352457060019391E-4
39 114 5.847790507477894E-4
39 115 5.377238809458774E-4
39 116 4.939059902648149E-4
39 117 4.531549340864822E-4
39 118 4.153044487175457E-4
39 119 3.801928140025063E-4
39 120 3.4766316169206583E-4
39 121 3.175637321289198E-4
39 122 2.8974808198221224E-4
39 123 2.64075245893548E-4
39 124 2.404098549935424E-4
39 125 2.186222153105597E-4
39 126 1.9858834912484408E-4
39 127 1.801900023241393E-4
39 128 1.6331462079362345E-4
39 129 1.478552988261544E-4
39 130 1.3371070247100844E-4
39 131 1.2078497065307907E-4
39 132 1.0898759679241744E-4
39 133 9.8233293538506E-5
39 134 8.844184310713185E-5
39 135 7.953793557242816E-5
39 136 7.145099732471724E-5
39 137 6.41150117582164E-5
39 138 5.746833410330014E-5
39 139 5.1453502167554E-5
40 1 1.1188900968451822E-2
40 2 1.1198007730362579E-2
40 3 1.1216160636334474E-2
40 4 1.1243238804992893E-2
40 5 1.1279061797896454E-2
40 6 1.1323390673759402E-2
40 7 1.1375929383915781E-2
40 8 1.1436326500387986E-2
40 9 1.1504177265857713E-2
40 10 1.1579025952835744E-2
40 11 1.1660368517400356E-2
40 12 1.1747655531034767E-2
40 13 1.1840295372353319E-2
40 14 1.1937657658875712E-2
40 15 1.2039076897499518E-2
40 16 1.2143856330943635E-2
40 17 1.225127195619986E-2
40 18 1.2360576689945129E-2
40 19 1.2471004654942157E-2
40 20 1.2581775560698904E-2
40 21 1.2692099151074367E-2
40 22 1.2801179691115558E-2
40 23 1.2908220465192771E-2
40 24 1.3012428258471227E-2
40 25 1.3113017793918746E-2
40 26 1.3209216097402558E-2
40 27 1.330026676397272E-2
40 28 1.3385434099163264E-2
40 29 1.3464007110061113E-2
40 30 1.3535303321992199E-2
40 31 1.359867239794702E-2
40 32 1.3653499539305941E-2
40 33 1.369920864801802E-2
40 34 1.3735265232124393E-2
40 35 1.3761179038385822E-2
40 36 1.3776506397759356E-2
40 37 1.3780852271556046E-2
40 38 1.3773871988283571E-2
40 39 1.3755272663416982E-2
40 40 1.3724814296629376E-2
40 41 1.3682310543333005E-2
40 42 1.3627629159710821E-2
40 43 1.3560692122739089E-2
40 44 1.3481475428993778E-2
40 45 1.3390008578277431E-2
40 46 1.328637375027991E-2
40 47 1.3170704684577482E-2
40 48 1.3043185276262177E-2
40 49 1.2904047901360693E-2
40 50 1.275357148793366E-2
40 51 1.2592079350327759E-2
40 52 1.2419936805472325E-2
40 53 1.2237548591357849E-2
40 54 1.2045356108896722E-2
40 55 1.1843834509239865E-2
40 56 1.163348964930086E-2
40 57 1.1414854938718735E-2
40 58 1.1188488101770437E-2
40 59 1.095496787782495E-2
40 60 1.07148906838159E-2
40 61 1.0417413759735424E-2
40 62 1.0171502290401539E-2
40 63 9.920367004047512E-3
40 64 9.664687759983982E-3
40 65 9.405142213157209E-3
40 66 9.142402900584164E-3
40 67 8.87713443244969E-3
40 68 8.609990803507927E-3
40 69 8.341612839080366E-3
40 70 8.072625788505754E-3
40 71 7.803637077389106E-3
40 72 7.535234228435287E-3
40 73 7.267982959054018E-3
40 74 7.002425462304573E-3
40 75 6.739078876126403E-3
40 76 6.478433944192542E-3
40 77 6.220953870141162E-3
40 78 5.967073365401693E-3
40 79 5.717197889348822E-3
40 80 5.471703079103E-3
40 81 5.230934364960887E-3
40 82 4.995206766193312E-3
40 83 4.76480486080035E-3
40 84 4.53998292177005E-3
40 85 4.32096521145483E-3
40 86 4.107946424861764E-3
40 87 3.901092271952699E-3
40 88 3.7005401884686075E-3
40 89 3.5064001643299895E-3
40 90 3.3187556783199905E-3
40 91 3.1376647275268414E-3
40 92 2.9631609399036283E-3
40 93 2.795254758291549E-3
40 94 2.633934684342309E-3
40 95 2.4791685709596527E-3
40 96 2.330904952152349E-3
40 97 2.1890743995435897E-3
40 98 2.0535908952067335E-3
40 99 1.9243532109863046E-3
40 100 1.8012462850076334E-3
40 101 1.6841425866698377E-3
40 102 1.5729034620464647E-3
40 103 1.4673804522774983E-3
40 104 1.367416578217387E-3
40 105 1.2728475852982531E-3
40 106 1.183503143267951E-3
40 107 1.0992079961619481E-3
40 108 1.0197830585595082E-3
40 109 9.450464548521614E-4
40 110 8.748144989104668E-4
40 111 8.089026121686099E-4
40 112 7.471261787510978E-4
40 113 6.893013368380249E-4
40 114 6.352457060019391E-4
40 115 5.847790507477894E-4
40 116 5.377238809458774E-4
40 117 4.939059902648149E-4
40 118 4.531549340864822E-4
40 119 4.153044487175457E-4
40 120 3.801928140025063E-4
40 121 3.4766316169206583E-4
40 122 3.175637321289198E-4
40 123 2.8974808198221224E-4
40 124 2.64075245893548E-4
40 125 2.404098549935424E-4
40 126 2.186222153105597E-4
40 127 1.9858834912484408E-4
40 128 1.801900023241393E-4
40 129 1.6331462079362345E-4
40 130 1.478552988261544E-4
40 131 1.3371070247100844E-4
40 132 1.2078497065307907E-4
40 133 1.0898759679241744E-4
40 134 9.8233293538506E-5
40 135 8.844184310713185E-5
40 136 7.953793557242816E-5
40 137 7.145099732471724E-5
40 138 6.41150117582164E-5
40 139 5.746833410330014E-5
40 140 5.1453502167554E-5
41 1 1.0702637444063887E-2
41 2 1.0712404655542134E-2
41 3 1.0731878226202043E-2
41 4 1.0760936791911212E-2
41 5 1.0799399155647371E-2
41 6 1.0847025300988168E-2
41 7 1.0903517734257271E-2
41 8 1.0968523147522625E-2
41 9 1.1041634392765277E-2
41 10 1.1122392755709096E-2
41 11 1.1210290516032595E-2
41 12 1.1304773778983994E-2
41 13 1.1405245561799476E-2
41 14 1.1511069116792E-2
41 15 1.1621571471543817E-2
41 16 1.1736047165309557E-2
41 17 1.1853762159527572E-2
41 18 1.1973957899254244E-2
41 19 1.2095855501387844E-2
41 20 1.2218660044743057E-2
41 21 1.2341564936382436E-2
41 22 1.2463756328113198E-2
41 23 1.258441755672322E-2
41 24 1.2702733581363694E-2
41 25 1.281789539149198E-2
41 26 1.292910435896931E-2
41 27 1.3035576508266252E-2
41 28 1.3136546679264277E-2
41 29 1.3231272557853477E-2
41 30 1.3319038550412072E-2
41 31 1.3399159479308647E-2
41 32 1.3470984077787651E-2
41 33 1.3533898263975356E-2
41 34 1.3587328175268861E-2
41 35 1.3630742946034159E-2
41 36 1.3663657213329761E-2
41 37 1.3685633337276381E-2
41 38 1.3696283324696652E-2
41 39 1.3695270446736301E-2
41 40 1.3682310543333005E-2
41 41 1.3657173009603896E-2
41 42 1.3619681461459419E-2
41 43 1.3569714080000968E-2
41 44 1.3507203636503717E-2
41 45 1.3432137202005107E-2
41 46 1.3344555547694443E-2
41 47 1.3244552244411213E-2
41 48 1.3132272471591062E-2
41 49 1.3007911547930955E-2
41 50 1.2871713197862707E-2
41 51 1.2723967569611047E-2
41 52 1.2565009022154685E-2
41 53 1.2395213699793734E-2
41 54 1.2214996914243275E-2
41 55 1.2024810355211437E-2
41 56 1.1825139151273787E-2
41 57 1.1616498803518444E-2
41 58 1.1399432014904523E-2
41 59 1.1174505438549021E-2
41 60 1.0890852866066733E-2
41 61 1.0657422349712599E-2
41 62 1.0417413759735424E-2
41 63 1.0171502290401539E-2
41 64 9.920367004047512E-3
41 65 9.664687759983982E-3
41 66 9.405142213157209E-3
41 67 9.142402900584164E-3
41 68 8.87713443244969E-3
41 69 8.609990803507927E-3
41 70 8.341612839080366E-3
41 71 8.072625788505754E-3
41 72 7.803637077389106E-3
41 73 7.535234228435287E-3
41 74 7.267982959054018E-3
41 75 7.002425462304573E-3
41 76 6.739078876126403E-3
41 77 6.478433944192542E-3
41 78 6.220953870141162E-3
41 79 5.967073365401693E-3
41 80 5.717197889348822E-3
41 81 5.471703079103E-3
41 82 5.230934364960887E-3
41 83 4.995206766193312E-3
41 84 4.76480486080035E-3
41 85 4.53998292177005E-3
41 86 4.32096521145483E-3
41 87 4.107946424861764E-3
41 88 3.901092271952699E-3
41 89 3.7005401884686075E-3
41 90 3.5064001643299895E-3
41 91 3.3187556783199905E-3
41 92 3.1376647275268414E-3
41 93 2.9631609399036283E-3
41 94 2.795254758291549E-3
41 95 2.633934684342309E-3
41 96 2.4791685709596527E-3
41 97 2.330904952152349E-3
41 98 2.1890743995435897E-3
41 99 2.0535908952067335E-3
41 100 1.9243532109863046E-3
41 101 1.8012462850076334E-3
41 102 1.6841425866698377E-3
41 103 1.5729034620464647E-3
41 104 1.4673804522774983E-3
41 105 1.367416578217387E-3
41 106 1.2728475852982531E-3
41 107 1.183503143267951E-3
41 108 1.0992079961619481E-3
41 109 1.0197830585595082E-3
41 110 9.450464548521614E-4
41 111 8.748144989104668E-4
41 112 8.089026121686099E-4
41 113 7.471261787510978E-4
41 114 6.893013368380249E-4
41 115 6.352457060019391E-4
41 116 5.847790507477894E-4
41 117 5.377238809458774E-4
41 118 4.939059902648149E-4
41 119 4.531549340864822E-4
41 120 4.153044487175457E-4
41 121 3.801928140025063E-4
41 122 3.4766316169206583E-4
41 123 3.175637321289198E-4
41 124 2.8974808198221224E-4
41 125 2.64075245893548E-4
41 126 2.404098549935424E-4
41 127 2.186222153105597E-4
41 128 1.9858834912484408E-4
41 129 1.801900023241393E-4
41 130 1.6331462079362345E-4
41 131 1.478552988261544E-4
41 132 1.3371070247100844E-4
41 133 1.2078497065307907E-4
41 134 1.0898759679241744E-4
41 135 9.8233293538506E-5
41 136 8.844184310713185E-5
41 137 7.953793557242816E-5
41 138 7.145099732471724E-5
41 139 6.41150117582164E-5
41 140 5.746833410330014E-5
41 141 5.1453502167554E-5
42 1 1.02261411311542E-2
42 2 1.023650793990335E-2
42 3 1.0257180811118871E-2
42 4 1.0288038576856524E-2
42 5 1.0328900295002927E-2
42 6 1.037952621614524E-2
42 7 1.043961906459501E-2
42 8 1.0508825626634563E-2
42 9 1.0586738637374008E-2
42 10 1.0672898955962129E-2
42 11 1.0766798017292734E-2
42 12 1.0867880546797302E-2
42 13 1.0975547523422675E-2
42 14 1.108915937446758E-2
42 15 1.120803938460204E-2
42 16 1.1331477300127754E-2
42 17 1.1458733108363942E-2
42 18 1.1589040970970287E-2
42 19 1.1721613289055145E-2
42 20 1.1855644877071376E-2
42 21 1.1990317221781888E-2
42 22 1.2124802801990096E-2
42 23 1.225826944428412E-2
42 24 1.2389884689743974E-2
42 25 1.2518820146414257E-2
42 26 1.2644255802355675E-2
42 27 1.2765384274260867E-2
42 28 1.2881414966956465E-2
42 29 1.2991578119615236E-2
42 30 1.3095128715169926E-2
42 31 1.3191350230252703E-2
42 32 1.3279558203978062E-2
42 33 1.3359103605038492E-2
42 34 1.3429375977885122E-2
42 35 1.34898063502128E-2
42 36 1.3539869885551184E-2
42 37 1.3579088266470366E-2
42 38 1.3607031795729111E-2
42 39 1.3623321204612675E-2
42 40 1.3627629159710821E-2
42 41 1.3619681461459419E-2
42 42 1.3599257929894042E-2
42 43 1.3566192975224047E-2
42 44 1.3520375853012297E-2
42 45 1.3461750605920728E-2
42 46 1.339031569613641E-2
42 47 1.3306123334708023E-2
42 48 1.3209278516079993E-2
42 49 1.3099937768093076E-2
42 50 1.297830762960834E-2
42 51 1.2844642869689633E-2
42 52 1.2699244463932455E-2
42 53 1.2542457345040111E-2
42 54 1.237466794610845E-2
42 55 1.2196301556277198E-2
42 56 1.2007819509429021E-2
42 57 1.1809716227459575E-2
42 58 1.1602516140297028E-2
42 59 1.1335317003146307E-2
42 60 1.1117037104445721E-2
42 61 1.0890852866066733E-2
42 62 1.0657422349712599E-2
42 63 1.0417413759735424E-2
42 64 1.0171502290401539E-2
42 65 9.920367004047512E-3
42 66 9.664687759983982E-3
42 67 9.405142213157209E-3
42 68 9.142402900584164E-3
42 69 8.87713443244969E-3
42 70 8.609990803507927E-3
42 71 8.341612839080366E-3
42 72 8.072625788505754E-3
42 73 7.803637077389106E-3
42 74 7.535234228435287E-3
42 75 7.267982959054018E-3
42 76 7.002425462304573E-3
42 77 6.739078876126403E-3
42 78 6.478433944192542E-3
42 79 6.220953870141162E-3
42 80 5.967073365401693E-3
42 81 5.717197889348822E-3
42 82 5.471703079103E-3
42 83 5.230934364960887E-3
42 84 4.995206766193312E-3
42 85 4.76480486080035E-3
42 86 4.53998292177005E-3
42 87 4.32096521145483E-3
42 88 4.107946424861764E-3
42 89 3.901092271952699E-3
42 90 3.7005401884686075E-3
42 91 3.5064001643299895E-3
42 92 3.3187556783199905E-3
42 93 3.1376647275268414E-3
42 94 2.9631609399036283E-3
42 95 2.795254758291549E-3
42 96 2.633934684342309E-3
42 97 2.4791685709596527E-3
42 98 2.330904952152349E-3
42 99 2.1890743995435897E-3
42 100 2.0535908952067335E-3
42 101 1.9243532109863046E-3
42 102 1.8012462850076334E-3
42 103 1.6841425866698377E-3
42 104 1.5729034620464647E-3
42 105 1.4673804522774983E-3
42 106 1.367416578217387E-3
42 107 1.2728475852982531E-3
42 108 1.183503143267951E-3
42 109 1.0992079961619481E-3
42 110 1.0197830585595082E-3
42 111 9.450464548521614E-4
42 112 8.748144989104668E-4
42 113 8.089026121686099E-4
42 114 7.471261787510978E-4
42 115 6.893013368380249E-4
42 116 6.352457060019391E-4
42 117 5.847790507477894E-4
42 118 5.377238809458774E-4
42 119 4.939059902648149E-4
42 120 4.531549340864822E-4
42 121 4.153044487175457E-4
42 122 3.801928140025063E-4
42 123 3.4766316169206583E-4
42 124 3.175637321289198E-4
42 125 2.8974808198221224E-4
42 126 2.64075245893548E-4
42 127 2.404098549935424E-4
42 128 2.186222153105597E-4
42 129 1.9858834912484408E-4
42 130 1.801900023241393E-4
42 131 1.6331462079362345E-4
42 132 1.478552988261544E-4
42 133 1.3371070247100844E-4
42 134 1.2078497065307907E-4
42 135 1.0898759679241744E-4
42 136 9.8233293538506E-5
42 137 8.844184310713185E-5
42 138 7.953793557242816E-5
42 139 7.145099732471724E-5
42 140 6.41150117582164E-5
42 141 5.746833410330014E-5
42 142 5.1453502167554E-5
43 1 9.760011626993663E-3
43 2 9.770917286730936E-3
43 3 9.792668290557829E-3
43 4 9.825144314210586E-3
43 5 9.868165637354393E-3
43 6 9.92149405860977E-3
43 7 9.984834108522533E-3
43 8 1.0057834554446393E-2
43 9 1.0140090189831414E-2
43 10 1.0231143898957646E-2
43 11 1.0330488986726836E-2
43 12 1.0437571761731415E-2
43 13 1.0551794359465407E-2
43 14 1.0672517791232714E-2
43 15 1.0799065203051517E-2
43 16 1.0930725327656425E-2
43 17 1.1066756111570469E-2
43 18 1.1206388498164842E-2
43 19 1.134883034665382E-2
43 20 1.1493270466093976E-2
43 21 1.1638882742679036E-2
43 22 1.1784830337952811E-2
43 23 1.1930269935010852E-2
43 24 1.2074356009334684E-2
43 25 1.2216245100607669E-2
43 26 1.2355100061705815E-2
43 27 1.2490094261045888E-2
43 28 1.2620415714611826E-2
43 29 1.2745271124272914E-2
43 30 1.2863889799455868E-2
43 31 1.2975527439839341E-2
43 32 1.3079469757503544E-2
43 33 1.3175035917887828E-2
43 34 1.326158177998243E-2
43 35 1.3338502917402148E-2
43 36 1.3405237403353405E-2
43 37 1.3461268344003914E-2
43 38 1.350612614638639E-2
43 39 1.3539390508703631E-2
43 40 1.3560692122739089E-2
43 41 1.3569714080000968E-2
43 42 1.3566192975224047E-2
43 43 1.3549919702905372E-2
43 44 1.3520739944641058E-2
43 45 1.34785543471436E-2
43 46 1.3423318392934308E-2
43 47 1.3355041967805188E-2
43 48 1.3273788631210037E-2
43 49 1.3179674597757377E-2
43 50 1.3072867439920002E-2
43 51 1.295358452392975E-2
43 52 1.2822091192575059E-2
43 53 1.267869871024717E-2
43 54 1.2523761987074033E-2
43 55 1.2357677100326033E-2
43 56 1.2180878632462986E-2
43 57 1.1993836846207605E-2
43 58 1.174560121570136E-2
43 59 1.1545047806193727E-2
43 60 1.1335317003146307E-2
43 61 1.1117037104445721E-2
43 62 1.0890852866066733E-2
43 63 1.0657422349712599E-2
43 64 1.0417413759735424E-2
43 65 1.0171502290401539E-2
43 66 9.920367004047512E-3
43 67 9.664687759983982E-3
43 68 9.405142213157209E-3
43 69 9.142402900584164E-3
43 70 8.87713443244969E-3
43 71 8.609990803507927E-3
43 72 8.341612839080366E-3
43 73 8.072625788505754E-3
43 74 7.803637077389106E-3
43 75 7.535234228435287E-3
43 76 7.267982959054018E-3
43 77 7.002425462304573E-3
43 78 6.739078876126403E-3
43 79 6.478433944192542E-3
43 80 6.220953870141162E-3
43 81 5.967073365401693E-3
43 82 5.717197889348822E-3
43 83 5.471703079103E-3
43 84 5.230934364960887E-3
43 85 4.995206766193312E-3
43 86 4.76480486080035E-3
43 87 4.53998292177005E-3
43 88 4.32096521145483E-3
43 89 4.107946424861764E-3
43 90 3.901092271952699E-3
43 91 3.7005401884686075E-3
43 92 3.5064001643299895E-3
43 93 3.3187556783199905E-3
43 94 3.1376647275268414E-3
43 95 2.9631609399036283E-3
43 96 2.795254758291549E-3
43 97 2.633934684342309E-3
43 98 2.4791685709596527E-3
43 99 2.330904952152349E-3
43 100 2.1890743995435897E-3
43 101 2.0535908952067335E-3
43 102 1.9243532109863046E-3
43 103 1.8012462850076334E-3
43 104 1.6841425866698377E-3
43 105 1.5729034620464647E-3
43 106 1.4673804522774983E-3
43 107 1.367416578217387E-3
43 108 1.2728475852982531E-3
43 109 1.183503143267951E-3
43 110 1.0992079961619481E-3
43 111 1.0197830585595082E-3
43 112 9.450464548521614E-4
43 113 8.748144989104668E-4
43 114 8.089026121686099E-4
43 115 7.471261787510978E-4
43 116 6.893013368380249E-4
43 117 6.352457060019391E-4
43 118 5.847790507477894E-4
43 119 5.377238809458774E-4
43 120 4.939059902648149E-4
43 121 4.531549340864822E-4
43 122 4.153044487175457E-4
43 123 3.801928140025063E-4
43 124 3.4766316169206583E-4
43 125 3.175637321289198E-4
43 126 2.8974808198221224E-4
43 127 2.64075245893548E-4
43 128 2.404098549935424E-4
43 129 2.186222153105597E-4
43 130 1.9858834912484408E-4
43 131 1.801900023241393E-4
43 132 1.6331462079362345E-4
43 133 1.478552988261544E-4
43 134 1.3371070247100844E-4
43 135 1.2078497065307907E-4
43 136 1.0898759679241744E-4
43 137 9.8233293538506E-5
43 138 8.844184310713185E-5
43 139 7.953793557242816E-5
43 140 7.145099732471724E-5
43 141 6.41150117582164E-5
43 142 5.746833410330014E-5
43 143 5.1453502167554E-5
44 1 9.3047877825704E-3
44 2 9.316171977648141E-3
44 3 9.33888078982265E-3
44 4 9.372795351055698E-3
44 5 9.41773807781743E-3
44 6 9.473473529731682E-3
44 7 9.539709548461152E-3
44 8 9.616098671719383E-3
44 9 9.702239816030031E-3
44 10 9.79768022059612E-3
44 11 9.901917643396327E-3
44 12 1.001440279939494E-2
44 13 1.0134542029541456E-2
44 14 1.0261700188049344E-2
44 15 1.0395203734287099E-2
44 16 1.0534344014494232E-2
44 17 1.0678380717457324E-2
44 18 1.0826545487254001E-2
44 19 1.0978045675203673E-2
44 20 1.1132068212261481E-2
44 21 1.1287783582264899E-2
44 22 1.1444349875699792E-2
44 23 1.1600916903003375E-2
44 24 1.1756630345874547E-2
44 25 1.1910635924626241E-2
44 26 1.2062083559297882E-2
44 27 1.2210131502056774E-2
44 28 1.2353950418362337E-2
44 29 1.2492727394452457E-2
44 30 1.2625669848942329E-2
44 31 1.2752009326706708E-2
44 32 1.2871005153749107E-2
44 33 1.2981947932447483E-2
44 34 1.3084162857404854E-2
44 35 1.3177012833123036E-2
44 36 1.3259901375854878E-2
44 37 1.3332275283269428E-2
44 38 1.3393627056978434E-2
44 39 1.3443497064512804E-2
44 40 1.3481475428993778E-2
44 41 1.3507203636503717E-2
44 42 1.3520375853012297E-2
44 43 1.3520739944641058E-2
44 44 1.3508098197036675E-2
44 45 1.3482307731654639E-2
44 46 1.3443280618812378E-2
44 47 1.3390983689436323E-2
44 48 1.3325438049482575E-2
44 49 1.3246718303036963E-2
44 50 1.3154951492078786E-2
44 51 1.3050315762805428E-2
44 52 1.2933038770244465E-2
44 53 1.2803395834608981E-2
44 54 1.2661707864464754E-2
44 55 1.2508339063259821E-2
44 56 1.2343694437104617E-2
44 57 1.211676362070477E-2
44 58 1.1936368512104304E-2
44 59 1.174560121570136E-2
44 60 1.1545047806193727E-2
44 61 1.1335317003146307E-2
44 62 1.1117037104445721E-2
44 63 1.0890852866066733E-2
44 64 1.0657422349712599E-2
44 65 1.0417413759735424E-2
44 66 1.0171502290401539E-2
44 67 9.920367004047512E-3
44 68 9.664687759983982E-3
44 69 9.405142213157209E-3
44 70 9.142402900584164E-3
44 71 8.87713443244969E-3
44 72 8.609990803507927E-3
44 73 8.341612839080366E-3
44 74 8.072625788505754E-3
44 75 7.803637077389106E-3
44 76 7.535234228435287E-3
44 77 7.267982959054018E-3
44 78 7.002425462304573E-3
44 79 6.739078876126403E-3
44 80 6.478433944192542E-3
44 81 6.220953870141162E-3
44 82 5.967073365401693E-3
44 83 5.717197889348822E-3
44 84 5.471703079103E-3
44 85 5.230934364960887E-3
44 86 4.995206766193312E-3
44 87 4.76480486080035E-3
44 88 4.53998292177005E-3
44 89 4.32096521145483E-3
44 90 4.107946424861764E-3
44 91 3.901092271952699E-3
44 92 3.7005401884686075E-3
44 93 3.5064001643299895E-3
44 94 3.3187556783199905E-3
44 95 3.1376647275268414E-3
44 96 2.9631609399036283E-3
44 97 2.795254758291549E-3
44 98 2.633934684342309E-3
44 99 2.4791685709596527E-3
44 100 2.330904952152349E-3
44 101 2.1890743995435897E-3
44 102 2.0535908952067335E-3
44 103 1.9243532109863046E-3
44 104 1.8012462850076334E-3
44 105 1.6841425866698377E-3
44 106 1.5729034620464647E-3
44 107 1.4673804522774983E-3
44 108 1.367416578217387E-3
44 109 1.2728475852982531E-3
44 110 1.183503143267951E-3
44 111 1.0992079961619481E-3
44 112 1.0197830585595082E-3
44 113 9.450464548521614E-4
44 114 8.748144989104668E-4
44 115 8.089026121686099E-4
44 116 7.471261787510978E-4
44 117 6.893013368380249E-4
44 118 6.352457060019391E-4
44 119 5.847790507477894E-4
44 120 5.377238809458774E-4
44 121 4.939059902648149E-4
44 122 4.531549340864822E-4
44 123 4.153044487175457E-4
44 124 3.801928140025063E-4
44 125 3.4766316169206583E-4
44 126 3.175637321289198E-4
44 127 2.8974808198221224E-4
44 128 2.64075245893548E-4
44 129 2.404098549935424E-4
44 130 2.186222153105597E-4
44 131 1.9858834912484408E-4
44 132 1.801900023241393E-4
44 133 1.6331462079362345E-4
44 134 1.478552988261544E-4
44 135 1.3371070247100844E-4
44 136 1.2078497065307907E-4
44 137 1.0898759679241744E-4
44 138 9.8233293538506E-5
44 139 8.844184310713185E-5
44 140 7.953793557242816E-5
44 141 7.145099732471724E-5
44 142 6.41150117582164E-5
44 143 5.746833410330014E-5
44 144 5.1453502167554E-5
45 1 8.86094813322488E-3
45 2 8.872751285662114E-3
45 3 8.89629903814601E-3
45 4 8.931474553429495E-3
45 5 8.97810324343299E-3
45 6 9.035953567668812E-3
45 7 9.104738092928534E-3
45 8 9.18411481004479E-3
45 9 9.27368870248409E-3
45 10 9.373013560468713E-3
45 11 9.481594033264226E-3
45 12 9.598887911206368E-3
45 13 9.724308627978876E-3
45 14 9.85722797259584E-3
45 15 9.996978999492059E-3
45 16 1.0142859124088E-2
45 17 1.0294133390177764E-2
45 18 1.0450037894496155E-2
45 19 1.0609783352861661E-2
45 20 1.0772558791374596E-2
45 21 1.0937535345282235E-2
45 22 1.1103870147315462E-2
45 23 1.1270710286563486E-2
45 24 1.1437196818294932E-2
45 25 1.160246880456476E-2
45 26 1.17656673649772E-2
45 27 1.192593971661433E-2
45 28 1.2082443181897405E-2
45 29 1.2234349143031752E-2
45 30 1.2380846921703298E-2
45 31 1.2521147562852095E-2
45 32 1.2654487501650647E-2
45 33 1.2780132093266132E-2
45 34 1.2897378985588088E-2
45 35 1.3005561315857584E-2
45 36 1.3104050713039059E-2
45 37 1.3192260088829398E-2
45 38 1.3269646201395842E-2
45 39 1.333571197726858E-2
45 40 1.3390008578277431E-2
45 41 1.3432137202005107E-2
45 42 1.3461750605920728E-2
45 43 1.34785543471436E-2
45 44 1.3482307731654639E-2
45 45 1.3472824468705454E-2
45 46 1.3449973028156653E-2
45 47 1.3413676700489765E-2
45 48 1.3363913361263248E-2
45 49 1.3300714943803983E-2
45 50 1.322416662592239E-2
45 51 1.3134405738393501E-2
45 52 1.303162040483935E-2
45 53 1.2916047924462049E-2
45 54 1.278797291079477E-2
45 55 1.2647725201243338E-2
45 56 1.2444224051501605E-2
45 57 1.2286226103001317E-2
45 58 1.211676362070477E-2
45 59 1.1936368512104304E-2
45 60 1.174560121570136E-2
45 61 1.1545047806193727E-2
45 62 1.1335317003146307E-2
45 63 1.1117037104445721E-2
45 64 1.0890852866066733E-2
45 65 1.0657422349712599E-2
45 66 1.0417413759735424E-2
45 67 1.0171502290401539E-2
45 68 9.920367004047512E-3
45 69 9.664687759983982E-3
45 70 9.405142213157209E-3
45 71 9.142402900584164E-3
45 72 8.87713443244969E-3
45 73 8.609990803507927E-3
45 74 8.341612839080366E-3
45 75 8.072625788505754E-3
45 76 7.803637077389106E-3
45 77 7.535234228435287E-3
45 78 7.267982959054018E-3
45 79 7.002425462304573E-3
45 80 6.739078876126403E-3
45 81 6.478433944192542E-3
45 82 6.220953870141162E-3
45 83 5.967073365401693E-3
45 84 5.717197889348822E-3
45 85 5.471703079103E-3
45 86 5.230934364960887E-3
45 87 4.995206766193312E-3
45 88 4.76480486080035E-3
45 89 4.53998292177005E-3
45 90 4.32096521145483E-3
45 91 4.107946424861764E-3
45 92 3.901092271952699E-3
45 93 3.7005401884686075E-3
45 94 3.5064001643299895E-3
45 95 3.3187556783199905E-3
45 96 3.1376647275268414E-3
45 97 2.9631609399036283E-3
45 98 2.795254758291549E-3
45 99 2.633934684342309E-3
45 100 2.4791685709596527E-3
45 101 2.330904952152349E-3
45 102 2.1890743995435897E-3
45 103 2.0535908952067335E-3
45 104 1.9243532109863046E-3
45 105 1.8012462850076334E-3
45 106 1.6841425866698377E-3
45 107 1.5729034620464647E-3
45 108 1.4673804522774983E-3
45 109 1.367416578217387E-3
45 110 1.2728475852982531E-3
45 111 1.183503143267951E-3
45 112 1.0992079961619481E-3
45 113 1.0197830585595082E-3
45 114 9.450464548521614E-4
45 115 8.748144989104668E-4
45 116 8.089026121686099E-4
45 117 7.471261787510978E-4
45 118 6.893013368380249E-4
45 119 6.352457060019391E-4
45 120 5.847790507477894E-4
45 121 5.377238809458774E-4
45 122 4.939059902648149E-4
45 123 4.531549340864822E-4
45 124 4.153044487175457E-4
45 125 3.801928140025063E-4
45 126 3.4766316169206583E-4
45 127 3.175637321289198E-4
45 128 2.8974808198221224E-4
45 129 2.64075245893548E-4
45 130 2.404098549935424E-4
45 131 2.186222153105597E-4
45 132 1.9858834912484408E-4
45 133 1.801900023241393E-4
45 134 1.6331462079362345E-4
45 135 1.478552988261544E-4
45 136 1.3371070247100844E-4
45 137 1.2078497065307907E-4
45 138 1.0898759679241744E-4
45 139 9.8233293538506E-5
45 140 8.844184310713185E-5
45 141 7.953793557242816E-5
45 142 7.145099732471724E-5
45 143 6.41150117582164E-5
45 144 5.746833410330014E-5
45 145 5.1453502167554E-5
46 1 8.428911636316594E-3
46 2 8.441075193722749E-3
46 3 8.465345049268958E-3
46 4 8.501606930523303E-3
46 5 8.549690043280878E-3
46 6 8.60936780662984E-3
46 7 8.68035882925245E-3
46 8 8.762328123693243E-3
46 9 8.854888554483471E-3
46 10 8.957602515152195E-3
46 11 9.069983828278751E-3
46 12 9.191499861848163E-3
46 13 9.321573854260752E-3
46 14 9.459587439421591E-3
46 15 9.60488336239674E-3
46 16 9.756768375175591E-3
46 17 9.91451630112683E-3
46 18 1.0077371255785426E-2
46 19 1.0244551010667078E-2
46 20 1.0415250485882417E-2
46 21 1.058864535642516E-2
46 22 1.076389575614593E-2
46 23 1.094015006260702E-2
46 24 1.11165487452537E-2
46 25 1.129222825864589E-2
46 26 1.1466324961881208E-2
46 27 1.1637979044817831E-2
46 28 1.1806338441283745E-2
46 29 1.1970562709148246E-2
46 30 1.2129826856941518E-2
46 31 1.2283325096647237E-2
46 32 1.243027450236912E-2
46 33 1.2569918554791252E-2
46 34 1.2701530551718862E-2
46 35 1.2824416865504111E-2
46 36 1.2937920028832104E-2
46 37 1.3041421631165473E-2
46 38 1.3134345009119544E-2
46 39 1.321615771516047E-2
46 40 1.328637375027991E-2
46 41 1.3344555547694443E-2
46 42 1.339031569613641E-2
46 43 1.3423318392934308E-2
46 44 1.3443280618812378E-2
46 45 1.3449973028156653E-2
46 46 1.3443220550382839E-2
46 47 1.3422902699983578E-2
46 48 1.3388953594811173E-2
46 49 1.3341361684148675E-2
46 50 1.3280169190118698E-2
46 51 1.3205471267956312E-2
46 52 1.3117414892611085E-2
46 53 1.3016197481025138E-2
46 54 1.2902065261240632E-2
46 55 1.2723857899036553E-2
46 56 1.2590256867140038E-2
46 57 1.2444224051501605E-2
46 58 1.2286226103001317E-2
46 59 1.211676362070477E-2
46 60 1.1936368512104304E-2
46 61 1.174560121570136E-2
46 62 1.1545047806193727E-2
46 63 1.1335317003146307E-2
46 64 1.1117037104445721E-2
46 65 1.0890852866066733E-2
46 66 1.0657422349712599E-2
46 67 1.0417413759735424E-2
46 68 1.0171502290401539E-2
46 69 9.920367004047512E-3
46 70 9.664687759983982E-3
46 71 9.405142213157209E-3
46 72 9.142402900584164E-3
46 73 8.87713443244969E-3
46 74 8.609990803507927E-3
46 75 8.341612839080366E-3
46 76 8.072625788505754E-3
46 77 7.803637077389106E-3
46 78 7.535234228435287E-3
46 79 7.267982959054018E-3
46 80 7.002425462304573E-3
46 81 6.739078876126403E-3
46 82 6.478433944192542E-3
46 83 6.220953870141162E-3
46 84 5.967073365401693E-3
46 85 5.717197889348822E-3
46 86 5.471703079103E-3
46 87 5.230934364960887E-3
46 88 4.995206766193312E-3
46 89 4.76480486080035E-3
46 90 4.53998292177005E-3
46 91 4.32096521145483E-3
46 92 4.107946424861764E-3
46 93 3.901092271952699E-3
46 94 3.7005401884686075E-3
46 95 3.5064001643299895E-3
46 96 3.3187556783199905E-3
46 97 3.1376647275268414E-3
46 98 2.9631609399036283E-3
46 99 2.795254758291549E-3
46 100 2.633934684342309E-3
46 101 2.4791685709596527E-3
46 102 2.330904952152349E-3
46 103 2.1890743995435897E-3
46 104 2.0535908952067335E-3
46 105 1.9243532109863046E-3
46 106 1.8012462850076334E-3
46 107 1.6841425866698377E-3
46 108 1.5729034620464647E-3
46 109 1.4673804522774983E-3
46 110 1.367416578217387E-3
46 111 1.2728475852982531E-3
46 112 1.183503143267951E-3
46 113 1.0992079961619481E-3
46 114 1.0197830585595082E-3
46 115 9.450464548521614E-4
46 116 8.748144989104668E-4
46 117 8.089026121686099E-4
46 118 7.471261787510978E-4
46 119 6.893013368380249E-4
46 120 6.352457060019391E-4
46 121 5.847790507477894E-4
46 122 5.377238809458774E-4
46 123 4.939059902648149E-4
46 124 4.531549340864822E-4
46 125 4.153044487175457E-4
46 126 3.801928140025063E-4
46 127 3.4766316169206583E-4
46 128 3.175637321289198E-4
46 129 2.8974808198221224E-4
46 130 2.64075245893548E-4
46 131 2.404098549935424E-4
46 132 2.186222153105597E-4
46 133 1.9858834912484408E-4
46 134 1.801900023241393E-4
46 135 1.6331462079362345E-4
46 136 1.478552988261544E-4
46 137 1.3371070247100844E-4
46 138 1.2078497065307907E-4
46 139 1.0898759679241744E-4
46 140 9.8233293538506E-5
46 141 8.844184310713185E-5
46 142 7.953793557242816E-5
46 143 7.145099732471724E-5
46 144 6.41150117582164E-5
46 145 5.746833410330014E-5
46 146 5.1453502167554E-5
47 1 8.009038696814463E-3
47 2 8.021505399923436E-3
47 3 8.04638308610004E-3
47 4 8.08356053912034E-3
47 5 8.132871493720153E-3
47 6 8.194095304864514E-3
47 7 8.266957837394548E-3
47 8 8.351132573691132E-3
47 9 8.446241936361346E-3
47 10 8.55185882229351E-3
47 11 8.667508343736132E-3
47 12 8.792669771333136E-3
47 13 8.926778673290878E-3
47 14 9.069229244061651E-3
47 15 9.219376815105125E-3
47 16 9.37654053943557E-3
47 17 9.540006240783251E-3
47 18 9.709029417297753E-3
47 19 9.88283838880618E-3
47 20 1.0060637575717641E-2
47 21 1.0241610896746111E-2
47 22 1.0424925271716717E-2
47 23 1.0609734214836143E-2
47 24 1.0795181502957978E-2
47 25 1.0980404902570148E-2
47 26 1.1164539938486522E-2
47 27 1.1346723686550623E-2
47 28 1.1526098572068672E-2
47 29 1.1701816155193511E-2
47 30 1.1873040884092185E-2
47 31 1.2038953796458543E-2
47 32 1.2198756149787842E-2
47 33 1.235167296082185E-2
47 34 1.2496956434707275E-2
47 35 1.2633889264693382E-2
47 36 1.2761787783630525E-2
47 37 1.288000494912225E-2
47 38 1.2987933144930101E-2
47 39 1.3085006782130874E-2
47 40 1.3170704684577482E-2
47 41 1.3244552244411213E-2
47 42 1.3306123334708023E-2
47 43 1.3355041967805188E-2
47 44 1.3390983689436323E-2
47 45 1.3413676700489765E-2
47 46 1.3422902699983578E-2
47 47 1.3418497444704247E-2
47 48 1.3400351022869005E-2
47 49 1.3368407841125888E-2
47 50 1.3322666326182597E-2
47 51 1.3263178344336282E-2
47 52 1.31900483441421E-2
47 53 1.3103432229389669E-2
47 54 1.2952082469266922E-2
47 55 1.2844596927137332E-2
47 56 1.2723857899036553E-2
47 57 1.2590256867140038E-2
47 58 1.2444224051501605E-2
47 59 1.2286226103001317E-2
47 60 1.211676362070477E-2
47 61 1.1936368512104304E-2
47 62 1.174560121570136E-2
47 63 1.1545047806193727E-2
47 64 1.1335317003146307E-2
47 65 1.1117037104445721E-2
47 66 1.0890852866066733E-2
47 67 1.0657422349712599E-2
47 68 1.0417413759735424E-2
47 69 1.0171502290401539E-2
47 70 9.920367004047512E-3
47 71 9.664687759983982E-3
47 72 9.405142213157209E-3
47 73 9.142402900584164E-3
47 74 8.87713443244969E-3
47 75 8.609990803507927E-3
47 76 8.341612839080366E-3
47 77 8.072625788505754E-3
47 78 7.803637077389106E-3
47 79 7.535234228435287E-3
47 80 7.267982959054018E-3
47 81 7.002425462304573E-3
47 82 6.739078876126403E-3
47 83 6.478433944192542E-3
47 84 6.220953870141162E-3
47 85 5.967073365401693E-3
47 86 5.717197889348822E-3
47 87 5.471703079103E-3
47 88 5.230934364960887E-3
47 89 4.995206766193312E-3
47 90 4.76480486080035E-3
47 91 4.53998292177005E-3
47 92 4.32096521145483E-3
47 93 4.107946424861764E-3
47 94 3.901092271952699E-3
47 95 3.7005401884686075E-3
47 96 3.5064001643299895E-3
47 97 3.3187556783199905E-3
47 98 3.1376647275268414E-3
47 99 2.9631609399036283E-3
47 100 2.795254758291549E-3
47 101 2.633934684342309E-3
47 102 2.4791685709596527E-3
47 103 2.330904952152349E-3
47 104 2.1890743995435897E-3
47 105 2.0535908952067335E-3
47 106 1.9243532109863046E-3
47 107 1.8012462850076334E-3
47 108 1.6841425866698377E-3
47 109 1.5729034620464647E-3
47 110 1.4673804522774983E-3
47 111 1.367416578217387E-3
47 112 1.2728475852982531E-3
47 113 1.183503143267951E-3
47 114 1.0992079961619481E-3
47 115 1.0197830585595082E-3
47 116 9.450464548521614E-4
47 117 8.748144989104668E-4
47 118 8.089026121686099E-4
47 119 7.471261787510978E-4
47 120 6.893013368380249E-4
47 121 6.352457060019391E-4
47 122 5.847790507477894E-4
47 123 5.377238809458774E-4
47 124 4.939059902648149E-4
47 125 4.531549340864822E-4
47 126 4.153044487175457E-4
47 127 3.801928140025063E-4
47 128 3.4766316169206583E-4
47 129 3.175637321289198E-4
47 130 2.8974808198221224E-4
47 131 2.64075245893548E-4
47 132 2.404098549935424E-4
47 133 2.186222153105597E-4
47 134 1.9858834912484408E-4
47 135 1.801900023241393E-4
47 136 1.6331462079362345E-4
47 137 1.478552988261544E-4
47 138 1.3371070247100844E-4
47 139 1.2078497065307907E-4
47 140 1.0898759679241744E-4
47 141 9.8233293538506E-5
47 142 8.844184310713185E-5
47 143 7.953793557242816E-5
47 144 7.145099732471724E-5
47 145 6.41150117582164E-5
47 146 5.746833410330014E-5
47 147 5.1453502167554E-5
48 1 7.601632460421307E-3
48 2 7.614346589191754E-3
48 3 7.639720889774821E-3
48 4 7.6776476492968915E-3
48 5 7.727965800703979E-3
48 6 7.790461524484861E-3
48 7 7.864869049303195E-3
48 8 7.950871650062653E-3
48 9 8.048102841501172E-3
48 10 8.156147764945283E-3
48 11 8.274544765347894E-3
48 12 8.402787155178847E-3
48 13 8.540325161134036E-3
48 14 8.68656804897441E-3
48 15 8.840886421100482E-3
48 16 9.002614680712786E-3
48 17 9.171053655606493E-3
48 18 9.345473373804007E-3
48 19 9.525115982348316E-3
48 20 9.709198799669874E-3
48 21 9.896917491009198E-3
48 22 1.0087449355436325E-2
48 23 1.0279956712067675E-2
48 24 1.0473590372152591E-2
48 25 1.066749318279861E-2
48 26 1.0860803627239563E-2
48 27 1.1052659465737363E-2
48 28 1.1242201400460389E-2
48 29 1.142857674701261E-2
48 30 1.1610943094710537E-2
48 31 1.178847193723279E-2
48 32 1.1960352254911273E-2
48 33 1.2125794029703865E-2
48 34 1.228403167379637E-2
48 35 1.243432735283369E-2
48 36 1.2575974184983529E-2
48 37 1.2708299297395153E-2
48 38 1.283066672213358E-2
48 39 1.2942480114347113E-2
48 40 1.3043185276262177E-2
48 41 1.3132272471591062E-2
48 42 1.3209278516079993E-2
48 43 1.3273788631210037E-2
48 44 1.3325438049482575E-2
48 45 1.3363913361263248E-2
48 46 1.3388953594811173E-2
48 47 1.3400351022869005E-2
48 48 1.3397951691018962E-2
48 49 1.3381655664902927E-2
48 50 1.3351416995343472E-2
48 51 1.3307243402368385E-2
48 52 1.3249195681114866E-2
48 53 1.3125933332383884E-2
48 54 1.3045963895286368E-2
48 55 1.2952082469266922E-2
48 56 1.2844596927137332E-2
48 57 1.2723857899036553E-2
48 58 1.2590256867140038E-2
48 59 1.2444224051501605E-2
48 60 1.2286226103001317E-2
48 61 1.211676362070477E-2
48 62 1.1936368512104304E-2
48 63 1.174560121570136E-2
48 64 1.1545047806193727E-2
48 65 1.1335317003146307E-2
48 66 1.1117037104445721E-2
48 67 1.0890852866066733E-2
48 68 1.0657422349712599E-2
48 69 1.0417413759735424E-2
48 70 1.0171502290401539E-2
48 71 9.920367004047512E-3
48 72 9.664687759983982E-3
48 73 9.405142213157209E-3
48 74 9.142402900584164E-3
48 75 8.87713443244969E-3
48 76 8.609990803507927E-3
48 77 8.341612839080366E-3
48 78 8.072625788505754E-3
48 79 7.803637077389106E-3
48 80 7.535234228435287E-3
48 81 7.267982959054018E-3
48 82 7.002425462304573E-3
48 83 6.739078876126403E-3
48 84 6.478433944192542E-3
48 85 6.220953870141162E-3
48 86 5.967073365401693E-3
48 87 5.717197889348822E-3
48 88 5.471703079103E-3
48 89 5.230934364960887E-3
48 90 4.995206766193312E-3
48 91 4.76480486080035E-3
48 92 4.53998292177005E-3
48 93 4.32096521145483E-3
48 94 4.107946424861764E-3
48 95 3.901092271952699E-3
48 96 3.7005401884686075E-3
48 97 3.5064001643299895E-3
48 98 3.3187556783199905E-3
48 99 3.1376647275268414E-3
48 100 2.9631609399036283E-3
48 101 2.795254758291549E-3
48 102 2.633934684342309E-3
48 103 2.4791685709596527E-3
48 104 2.330904952152349E-3
48 105 2.1890743995435897E-3
48 106 2.0535908952067335E-3
48 107 1.9243532109863046E-3
48 108 1.8012462850076334E-3
48 109 1.6841425866698377E-3
48 110 1.5729034620464647E-3
48 111 1.4673804522774983E-3
48 112 1.367416578217387E-3
48 113 1.2728475852982531E-3
48 114 1.183503143267951E-3
48 115 1.0992079961619481E-3
48 116 1.0197830585595082E-3
48 117 9.450464548521614E-4
48 118 8.748144989104668E-4
48 119 8.089026121686099E-4
48 120 7.471261787510978E-4
48 121 6.893013368380249E-4
48 122 6.352457060019391E-4
48 123 5.847790507477894E-4
48 124 5.377238809458774E-4
48 125 4.939059902648149E-4
48 126 4.531549340864822E-4
48 127 4.153044487175457E-4
48 128 3.801928140025063E-4
48 129 3.4766316169206583E-4
48 130 3.175637321289198E-4
48 131 2.8974808198221224E-4
48 132 2.64075245893548E-4
48 133 2.404098549935424E-4
48 134 2.186222153105597E-4
48 135 1.9858834912484408E-4
48 136 1.801900023241393E-4
48 137 1.6331462079362345E-4
48 138 1.478552988261544E-4
48 139 1.3371070247100844E-4
48 140 1.2078497065307907E-4
48 141 1.0898759679241744E-4
48 142 9.8233293538506E-5
48 143 8.844184310713185E-5
48 144 7.953793557242816E-5
48 145 7.145099732471724E-5
48 146 6.41150117582164E-5
48 147 5.746833410330014E-5
48 148 5.1453502167554E-5
49 1 7.206940352798597E-3
49 2 7.21984795027269E-3
49 3 7.245611152388606E-3
49 4 7.284126151358458E-3
49 5 7.335237680061599E-3
49 6 7.39873954514266E-3
49 7 7.474375337152965E-3
49 8 7.561839317113236E-3
49 9 7.66077747864659E-3
49 10 7.770788784555556E-3
49 11 7.891426576387998E-3
49 12 8.022200155148795E-3
49 13 8.16257653086238E-3
49 14 8.311982338172867E-3
49 15 8.46980591458207E-3
49 16 8.635399537271405E-3
49 17 8.808081813733541E-3
49 18 8.987140220657056E-3
49 19 9.171833784667701E-3
49 20 9.361395897639874E-3
49 21 9.555037258360087E-3
49 22 9.751948931360157E-3
49 23 9.951305512752773E-3
49 24 1.0152268391908307E-2
49 25 1.0353989096822006E-2
49 26 1.055561271004945E-2
49 27 1.0756281341149329E-2
49 28 1.0955137640681302E-2
49 29 1.1151328339977415E-2
49 30 1.1344007800153216E-2
49 31 1.1532341553163267E-2
49 32 1.1715509817148813E-2
49 33 1.1892710967885793E-2
49 34 1.2063164947830279E-2
49 35 1.2226116594086517E-2
49 36 1.2380838866598317E-2
49 37 1.2526635957994858E-2
49 38 1.2662846266812165E-2
49 39 1.2788845216264883E-2
49 40 1.2904047901360693E-2
49 41 1.3007911547930955E-2
49 42 1.3099937768093076E-2
49 43 1.3179674597757377E-2
49 44 1.3246718303036963E-2
49 45 1.3300714943803983E-2
49 46 1.3341361684148675E-2
49 47 1.3368407841125888E-2
49 48 1.3381655664902927E-2
49 49 1.3380960845236546E-2
49 50 1.3366232741088715E-2
49 51 1.3337434332122056E-2
49 52 1.3243128390610169E-2
49 53 1.3191727347011566E-2
49 54 1.3125933332383884E-2
49 55 1.3045963895286368E-2
49 56 1.2952082469266922E-2
49 57 1.2844596927137332E-2
49 58 1.2723857899036553E-2
49 59 1.2590256867140038E-2
49 60 1.2444224051501605E-2
49 61 1.2286226103001317E-2
49 62 1.211676362070477E-2
49 63 1.1936368512104304E-2
49 64 1.174560121570136E-2
49 65 1.1545047806193727E-2
49 66 1.1335317003146307E-2
49 67 1.1117037104445721E-2
49 68 1.0890852866066733E-2
49 69 1.0657422349712599E-2
49 70 1.0417413759735424E-2
49 71 1.0171502290401539E-2
49 72 9.920367004047512E-3
49 73 9.664687759983982E-3
49 74 9.405142213157209E-3
49 75 9.142402900584164E-3
49 76 8.87713443244969E-3
49 77 8.609990803507927E-3
49 78 8.341612839080366E-3
49 79 8.072625788505754E-3
49 80 7.803637077389106E-3
49 81 7.535234228435287E-3
49 82 7.267982959054018E-3
49 83 7.002425462304573E-3
49 84 6.739078876126403E-3
49 85 6.478433944192542E-3
49 86 6.220953870141162E-3
49 87 5.967073365401693E-3
49 88 5.717197889348822E-3
49 89 5.471703079103E-3
49 90 5.230934364960887E-3
49 91 4.995206766193312E-3
49 92 4.76480486080035E-3
49 93 4.53998292177005E-3
49 94 4.32096521145483E-3
49 95 4.107946424861764E-3
49 96 3.901092271952699E-3
49 97 3.7005401884686075E-3
49 98 3.5064001643299895E-3
49 99 3.3187556783199905E-3
49 100 3.1376647275268414E-3
49 101 2.9631609399036283E-3
49 102 2.795254758291549E-3
49 103 2.633934684342309E-3
49 104 2.4791685709596527E-3
49 105 2.330904952152349E-3
49 106 2.1890743995435897E-3
49 107 2.0535908952067335E-3
49 108 1.9243532109863046E-3
49 109 1.8012462850076334E-3
49 110 1.6841425866698377E-3
49 111 1.5729034620464647E-3
49 112 1.4673804522774983E-3
49 113 1.367416578217387E-3
49 114 1.2728475852982531E-3
49 115 1.183503143267951E-3
49 116 1.0992079961619481E-3
49 117 1.0197830585595082E-3
49 118 9.450464548521614E-4
49 119 8.748144989104668E-4
49 120 8.089026121686099E-4
49 121 7.471261787510978E-4
49 122 6.893013368380249E-4
49 123 6.352457060019391E-4
49 124 5.847790507477894E-4
49 125 5.377238809458774E-4
49 126 4.939059902648149E-4
49 127 4.531549340864822E-4
49 128 4.153044487175457E-4
49 129 3.801928140025063E-4
49 130 3.4766316169206583E-4
49 131 3.175637321289198E-4
49 132 2.8974808198221224E-4
49 133 2.64075245893548E-4
49 134 2.404098549935424E-4
49 135 2.186222153105597E-4
49 136 1.9858834912484408E-4
49 137 1.801900023241393E-4
49 138 1.6331462079362345E-4
49 139 1.478552988261544E-4
49 140 1.3371070247100844E-4
49 141 1.2078497065307907E-4
49 142 1.0898759679241744E-4
49 143 9.8233293538506E-5
49 144 8.844184310713185E-5
49 145 7.953793557242816E-5
49 146 7.145099732471724E-5
49 147 6.41150117582164E-5
49 148 5.746833410330014E-5
49 149 5.1453502167554E-5
50 1 6.8251558426499805E-3
50 2 6.838204915995448E-3
50 3 6.8642532118563275E-3
50 4 6.903201183153313E-3
50 5 6.954899895797138E-3
50 6 7.019151492729702E-3
50 7 7.0957098129526995E-3
50 8 7.184281165736902E-3
50 9 7.28452526016762E-3
50 10 7.396056290089305E-3
50 11 7.5184441743564555E-3
50 12 7.65121595207153E-3
50 13 7.793857332187627E-3
50 14 7.94581439647004E-3
50 15 8.10649545434379E-3
50 16 8.275273047602826E-3
50 17 8.451486102321968E-3
50 18 8.634442224597236E-3
50 19 8.823420135948614E-3
50 20 9.017672243357915E-3
50 21 9.216427337990832E-3
50 22 9.418893415676536E-3
50 23 9.624260611200789E-3
50 24 9.831704237422188E-3
50 25 1.0040387919159148E-2
50 26 1.0249466810731772E-2
50 27 1.0458090884993389E-2
50 28 1.0665408280666354E-2
50 29 1.0870568693821907E-2
50 30 1.1072726798430145E-2
50 31 1.127104568006924E-2
50 32 1.1464700266137787E-2
50 33 1.1652880735275227E-2
50 34 1.183479588817594E-2
50 35 1.2009676461594907E-2
50 36 1.2176778367097846E-2
50 37 1.2335385836015329E-2
50 38 1.2484814452126161E-2
50 39 1.2624414053825745E-2
50 40 1.275357148793366E-2
50 41 1.2871713197862707E-2
50 42 1.297830762960834E-2
50 43 1.3072867439920002E-2
50 44 1.3154951492078786E-2
50 45 1.322416662592239E-2
50 46 1.3280169190118698E-2
50 47 1.3322666326182597E-2
50 48 1.3351416995343472E-2
50 49 1.3366232741088715E-2
50 50 1.336697818201513E-2
50 51 1.33021177293305E-2
50 52 1.3279965998018756E-2
50 53 1.3243128390610169E-2
50 54 1.3191727347011566E-2
50 55 1.3125933332383884E-2
50 56 1.3045963895286368E-2
50 57 1.2952082469266922E-2
50 58 1.2844596927137332E-2
50 59 1.2723857899036553E-2
50 60 1.2590256867140038E-2
50 61 1.2444224051501605E-2
50 62 1.2286226103001317E-2
50 63 1.211676362070477E-2
50 64 1.1936368512104304E-2
50 65 1.174560121570136E-2
50 66 1.1545047806193727E-2
50 67 1.1335317003146307E-2
50 68 1.1117037104445721E-2
50 69 1.0890852866066733E-2
50 70 1.0657422349712599E-2
50 71 1.0417413759735424E-2
50 72 1.0171502290401539E-2
50 73 9.920367004047512E-3
50 74 9.664687759983982E-3
50 75 9.405142213157209E-3
50 76 9.142402900584164E-3
50 77 8.87713443244969E-3
50 78 8.609990803507927E-3
50 79 8.341612839080366E-3
50 80 8.072625788505754E-3
50 81 7.803637077389106E-3
50 82 7.535234228435287E-3
50 83 7.267982959054018E-3
50 84 7.002425462304573E-3
50 85 6.739078876126403E-3
50 86 6.478433944192542E-3
50 87 6.220953870141162E-3
50 88 5.967073365401693E-3
50 89 5.717197889348822E-3
50 90 5.471703079103E-3
50 91 5.230934364960887E-3
50 92 4.995206766193312E-3
50 93 4.76480486080035E-3
50 94 4.53998292177005E-3
50 95 4.32096521145483E-3
50 96 4.107946424861764E-3
50 97 3.901092271952699E-3
50 98 3.7005401884686075E-3
50 99 3.5064001643299895E-3
50 100 3.3187556783199905E-3
50 101 3.1376647275268414E-3
50 102 2.9631609399036283E-3
50 103 2.795254758291549E-3
50 104 2.633934684342309E-3
50 105 2.4791685709596527E-3
50 106 2.330904952152349E-3
50 107 2.1890743995435897E-3
50 108 2.0535908952067335E-3
50 109 1.9243532109863046E-3
50 110 1.8012462850076334E-3
50 111 1.6841425866698377E-3
50 112 1.5729034620464647E-3
50 113 1.4673804522774983E-3
50 114 1.367416578217387E-3
50 115 1.2728475852982531E-3
50 116 1.183503143267951E-3
50 117 1.0992079961619481E-3
50 118 1.0197830585595082E-3
50 119 9.450464548521614E-4
50 120 8.748144989104668E-4
50 121 8.089026121686099E-4
50 122 7.471261787510978E-4
50 123 6.893013368380249E-4
50 124 6.352457060019391E-4
50 125 5.847790507477894E-4
50 126 5.377238809458774E-4
50 127 4.939059902648149E-4
50 128 4.531549340864822E-4
50 129 4.153044487175457E-4
50 130 3.801928140025063E-4
50 131 3.4766316169206583E-4
50 132 3.175637321289198E-4
50 133 2.8974808198221224E-4
50 134 2.64075245893548E-4
50 135 2.404098549935424E-4
50 136 2.186222153105597E-4
50 137 1.9858834912484408E-4
50 138 1.801900023241393E-4
50 139 1.6331462079362345E-4
50 140 1.478552988261544E-4
50 141 1.3371070247100844E-4
50 142 1.2078497065307907E-4
50 143 1.0898759679241744E-4
50 144 9.8233293538506E-5
50 145 8.844184310713185E-5
50 146 7.953793557242816E-5
50 147 7.145099732471724E-5
50 148 6.41150117582164E-5
50 149 5.746833410330014E-5
50 150 5.1453502167554E-5
51 1 6.456420405846832E-3
51 2 6.469561104233618E-3
51 3 6.495794946760156E-3
51 4 6.535026956295008E-3
51 5 6.5871149958214165E-3
51 6 6.651870163607179E-3
51 7 6.729057321313639E-3
51 8 6.818395756007084E-3
51 9 6.919559977179617E-3
51 10 7.03218064996852E-3
51 11 7.155845665772837E-3
51 12 7.290101351395287E-3
51 13 7.4344538176791914E-3
51 14 7.588370448358549E-3
51 15 7.7512815294907954E-3
51 16 7.922582019394353E-3
51 17 8.10163345846652E-3
51 18 8.287766017613525E-3
51 19 8.480280683287449E-3
51 20 8.678451576299573E-3
51 21 8.881528400674363E-3
51 22 9.088739017831464E-3
51 23 9.29929214034595E-3
51 24 9.51238013845163E-3
51 25 9.727181951331954E-3
51 26 9.942866094103086E-3
51 27 1.0158593750248798E-2
51 28 1.0373521938133994E-2
51 29 1.0586806739119084E-2
51 30 1.079760657373793E-2
51 31 1.1005085511404665E-2
51 32 1.1208416598195653E-2
51 33 1.1406785186427933E-2
51 34 1.1599392249039855E-2
51 35 1.1785457661187269E-2
51 36 1.1964223431011918E-2
51 37 1.213495686122915E-2
51 38 1.2296953623028909E-2
51 39 1.244954072379494E-2
51 40 1.2592079350327759E-2
51 41 1.2723967569611047E-2
51 42 1.2844642869689633E-2
51 43 1.295358452392975E-2
51 44 1.3050315762805428E-2
51 45 1.3134405738393501E-2
51 46 1.3205471267956312E-2
51 47 1.3263178344336282E-2
51 48 1.3307243402368385E-2
51 49 1.3337434332122056E-2
51 50 1.33021177293305E-2
51 51 1.330950984791183E-2
51 52 1.33021177293305E-2
51 53 1.3279965998018756E-2
51 54 1.3243128390610169E-2
51 55 1.3191727347011566E-2
51 56 1.3125933332383884E-2
51 57 1.3045963895286368E-2
51 58 1.2952082469266922E-2
51 59 1.2844596927137332E-2
51 60 1.2723857899036553E-2
51 61 1.2590256867140038E-2
51 62 1.2444224051501605E-2
51 63 1.2286226103001317E-2
51 64 1.211676362070477E-2
51 65 1.1936368512104304E-2
51 66 1.174560121570136E-2
51 67 1.1545047806193727E-2
51 68 1.1335317003146307E-2
51 69 1.1117037104445721E-2
51 70 1.0890852866066733E-2
51 71 1.0657422349712599E-2
51 72 1.0417413759735424E-2
51 73 1.0171502290401539E-2
51 74 9.920367004047512E-3
51 75 9.664687759983982E-3
51 76 9.405142213157209E-3
51 77 9.142402900584164E-3
51 78 8.87713443244969E-3
51 79 8.609990803507927E-3
51 80 8.341612839080366E-3
51 81 8.072625788505754E-3
51 82 7.803637077389106E-3
51 83 7.535234228435287E-3
51 84 7.267982959054018E-3
51 85 7.002425462304573E-3
51 86 6.739078876126403E-3
51 87 6.478433944192542E-3
51 88 6.220953870141162E-3
51 89 5.967073365401693E-3
51 90 5.717197889348822E-3
51 91 5.471703079103E-3
51 92 5.230934364960887E-3
51 93 4.995206766193312E-3
51 94 4.76480486080035E-3
51 95 4.53998292177005E-3
51 96 4.32096521145483E-3
51 97 4.107946424861764E-3
51 98 3.901092271952699E-3
51 99 3.7005401884686075E-3
51 100 3.5064001643299895E-3
51 101 3.3187556783199905E-3
51 102 3.1376647275268414E-3
51 103 2.9631609399036283E-3
51 104 2.795254758291549E-3
51 105 2.633934684342309E-3
51 106 2.4791685709596527E-3
51 107 2.330904952152349E-3
51 108 2.1890743995435897E-3
51 109 2.0535908952067335E-3
51 110 1.9243532109863046E-3
51 111 1.8012462850076334E-3
51 112 1.6841425866698377E-3
51 113 1.5729034620464647E-3
51 114 1.4673804522774983E-3
51 115 1.367416578217387E-3
51 116 1.2728475852982531E-3
51 117 1.183503143267951E-3
51 118 1.0992079961619481E-3
51 119 1.0197830585595082E-3
51 120 9.450464548521614E-4
51 121 8.748144989104668E-4
51 122 8.089026121686099E-4
51 123 7.471261787510978E-4
51 124 6.893013368380249E-4
51 125 6.352457060019391E-4
51 126 5.847790507477894E-4
51 127 5.377238809458774E-4
51 128 4.939059902648149E-4
51 129 4.531549340864822E-4
51 130 4.153044487175457E-4
51 131 3.801928140025063E-4
51 132 3.4766316169206583E-4
51 133 3.175637321289198E-4
51 134 2.8974808198221224E-4
51 135 2.64075245893548E-4
51 136 2.404098549935424E-4
51 137 2.186222153105597E-4
51 138 1.9858834912484408E-4
51 139 1.801900023241393E-4
51 140 1.6331462079362345E-4
51 141 1.478552988261544E-4
51 142 1.3371070247100844E-4
51 143 1.2078497065307907E-4
51 144 1.0898759679241744E-4
51 145 9.8233293538506E-5
51 146 8.844184310713185E-5
51 147 7.953793557242816E-5
51 148 7.145099732471724E-5
51 149 6.41150117582164E-5
51 150 5.746833410330014E-5
51 151 5.1453502167554E-5
52 1 6.100825667430469E-3
52 2 6.11401043661154E-3
52 3 6.140334848672298E-3
52 4 6.179708759428261E-3
52 5 6.231997224105048E-3
52 6 6.297020824405353E-3
52 7 6.374556106661563E-3
52 8 6.464336132756354E-3
52 9 6.566051145807984E-3
52 10 6.6793493528631495E-3
52 11 6.803837827007352E-3
52 12 6.939083531380498E-3
52 13 7.084614467566209E-3
52 14 7.239920950699946E-3
52 15 7.404457013409113E-3
52 16 7.57764194035449E-3
52 17 7.758861934685911E-3
52 18 7.947471917156734E-3
52 19 8.142797457964484E-3
52 20 8.344136840603898E-3
52 21 8.550763256140204E-3
52 22 8.761927125343778E-3
52 23 8.976858545082305E-3
52 24 9.194769854255717E-3
52 25 9.414858313395568E-3
52 26 9.63630889084898E-3
52 27 9.858297147243691E-3
52 28 1.0079992208701528E-2
52 29 1.0300559818050017E-2
52 30 1.0519165452093604E-2
52 31 1.0734977491864344E-2
52 32 1.0947170431694811E-2
52 33 1.1154928111960281E-2
52 34 1.1357446959439263E-2
52 35 1.1553939218456866E-2
52 36 1.1743636155318572E-2
52 37 1.1925791218025499E-2
52 38 1.2099683132897929E-2
52 39 1.2264618919530923E-2
52 40 1.2419936805472325E-2
52 41 1.2565009022154685E-2
52 42 1.2699244463932455E-2
52 43 1.2822091192575059E-2
52 44 1.2933038770244465E-2
52 45 1.303162040483935E-2
52 46 1.3117414892611085E-2
52 47 1.31900483441421E-2
52 48 1.3249195681114866E-2
52 49 1.3243128390610169E-2
52 50 1.3279965998018756E-2
52 51 1.33021177293305E-2
52 52 1.330950984791183E-2
52 53 1.33021177293305E-2
52 54 1.3279965998018756E-2
52 55 1.3243128390610169E-2
52 56 1.3191727347011566E-2
52 57 1.3125933332383884E-2
52 58 1.3045963895286368E-2
52 59 1.2952082469266922E-2
52 60 1.2844596927137332E-2
52 61 1.2723857899036553E-2
52 62 1.2590256867140038E-2
52 63 1.2444224051501605E-2
52 64 1.2286226103001317E-2
52 65 1.211676362070477E-2
52 66 1.1936368512104304E-2
52 67 1.174560121570136E-2
52 68 1.1545047806193727E-2
52 69 1.1335317003146307E-2
52 70 1.1117037104445721E-2
52 71 1.0890852866066733E-2
52 72 1.0657422349712599E-2
52 73 1.0417413759735424E-2
52 74 1.0171502290401539E-2
52 75 9.920367004047512E-3
52 76 9.664687759983982E-3
52 77 9.405142213157209E-3
52 78 9.142402900584164E-3
52 79 8.87713443244969E-3
52 80 8.609990803507927E-3
52 81 8.341612839080366E-3
52 82 8.072625788505754E-3
52 83 7.803637077389106E-3
52 84 7.535234228435287E-3
52 85 7.267982959054018E-3
52 86 7.002425462304573E-3
52 87 6.739078876126403E-3
52 88 6.478433944192542E-3
52 89 6.220953870141162E-3
52 90 5.967073365401693E-3
52 91 5.717197889348822E-3
52 92 5.471703079103E-3
52 93 5.230934364960887E-3
52 94 4.995206766193312E-3
52 95 4.76480486080035E-3
52 96 4.53998292177005E-3
52 97 4.32096521145483E-3
52 98 4.107946424861764E-3
52 99 3.901092271952699E-3
52 100 3.7005401884686075E-3
52 101 3.5064001643299895E-3
52 102 3.3187556783199905E-3
52 103 3.1376647275268414E-3
52 104 2.9631609399036283E-3
52 105 2.795254758291549E-3
52 106 2.633934684342309E-3
52 107 2.4791685709596527E-3
52 108 2.330904952152349E-3
52 109 2.1890743995435897E-3
52 110 2.0535908952067335E-3
52 111 1.9243532109863046E-3
52 112 1.8012462850076334E-3
52 113 1.6841425866698377E-3
52 114 1.5729034620464647E-3
52 115 1.4673804522774983E-3
52 116 1.367416578217387E-3
52 117 1.2728475852982531E-3
52 118 1.183503143267951E-3
52 119 1.0992079961619481E-3
52 120 1.0197830585595082E-3
52 121 9.450464548521614E-4
52 122 8.748144989104668E-4
52 123 8.089026121686099E-4
52 124 7.471261787510978E-4
52 125 6.893013368380249E-4
52 126 6.352457060019391E-4
52 127 5.847790507477894E-4
52 128 5.377238809458774E-4
52 129 4.939059902648149E-4
52 130 4.531549340864822E-4
52 131 4.153044487175457E-4
52 132 3.801928140025063E-4
52 133 3.4766316169206583E-4
52 134 3.175637321289198E-4
52 135 2.8974808198221224E-4
52 136 2.64075245893548E-4
52 137 2.404098549935424E-4
52 138 2.186222153105597E-4
52 139 1.9858834912484408E-4
52 140 1.801900023241393E-4
52 141 1.6331462079362345E-4
52 142 1.478552988261544E-4
52 143 1.3371070247100844E-4
52 144 1.2078497065307907E-4
52 145 1.0898759679241744E-4
52 146 9.8233293538506E-5
52 147 8.844184310713185E-5
52 148 7.953793557242816E-5
52 149 7.145099732471724E-5
52 150 6.41150117582164E-5
52 151 5.746833410330014E-5
52 152 5.1453502167554E-5
53 1 5.758415698195177E-3
53 2 5.77159941186915E-3
53 3 5.797924249279643E-3
53 4 5.837305116482339E-3
53 5 5.889614588012198E-3
53 6 5.954683167159433E-3
53 7 6.032299635848068E-3
53 8 6.122211496462463E-3
53 9 6.224125508439888E-3
53 10 6.337708322846815E-3
53 11 6.4625872184708106E-3
53 12 6.5983509431782736E-3
53 13 6.744550664401253E-3
53 14 6.900701032616773E-3
53 15 7.066281361563641E-3
53 16 7.2407369287006695E-3
53 17 7.423480399044704E-3
53 18 7.61389337503687E-3
53 19 7.811328074473182E-3
53 20 8.015109137805116E-3
53 21 8.224535565273312E-3
53 22 8.438882783391045E-3
53 23 8.657404839253544E-3
53 24 8.879336720026243E-3
53 25 9.103896793772742E-3
53 26 9.330289366536173E-3
53 27 9.55770734930171E-3
53 28 9.785335027159715E-3
53 29 1.0012350921676048E-2
53 30 1.0237930736176432E-2
53 31 1.046125037238375E-2
53 32 1.0681489005628972E-2
53 33 1.089783220470614E-2
53 34 1.1109475081377293E-2
53 35 1.1315625453570566E-2
53 36 1.1515507005470446E-2
53 37 1.1708362426987352E-2
53 38 1.1893456514527513E-2
53 39 1.2070079214575313E-2
53 40 1.2237548591357849E-2
53 41 1.2395213699793734E-2
53 42 1.2542457345040111E-2
53 43 1.267869871024717E-2
53 44 1.2803395834608981E-2
53 45 1.2916047924462049E-2
53 46 1.3016197481025138E-2
53 47 1.3103432229389669E-2
53 48 1.3125933332383884E-2
53 49 1.3191727347011566E-2
53 50 1.3243128390610169E-2
53 51 1.3279965998018756E-2
53 52 1.33021177293305E-2
53 53 1.330950984791183E-2
53 54 1.33021177293305E-2
53 55 1.3279965998018756E-2
53 56 1.3243128390610169E-2
53 57 1.3191727347011566E-2
53 58 1.3125933332383884E-2
53 59 1.3045963895286368E-2
53 60 1.2952082469266922E-2
53 61 1.2844596927137332E-2
53 62 1.2723857899036553E-2
53 63 1.2590256867140038E-2
53 64 1.2444224051501605E-2
53 65 1.2286226103001317E-2
53 66 1.211676362070477E-2
53 67 1.1936368512104304E-2
53 68 1.174560121570136E-2
53 69 1.1545047806193727E-2
53 70 1.1335317003146307E-2
53 71 1.1117037104445721E-2
53 72 1.0890852866066733E-2
53 73 1.0657422349712599E-2
53 74 1.0417413759735424E-2
53 75 1.0171502290401539E-2
53 76 9.920367004047512E-3
53 77 9.664687759983982E-3
53 78 9.405142213157209E-3
53 79 9.142402900584164E-3
53 80 8.87713443244969E-3
53 81 8.609990803507927E-3
53 82 8.341612839080366E-3
53 83 8.072625788505754E-3
53 84 7.803637077389106E-3
53 85 7.535234228435287E-3
53 86 7.267982959054018E-3
53 87 7.002425462304573E-3
53 88 6.739078876126403E-3
53 89 6.478433944192542E-3
53 90 6.220953870141162E-3
53 91 5.967073365401693E-3
53 92 5.717197889348822E-3
53 93 5.471703079103E-3
53 94 5.230934364960887E-3
53 95 4.995206766193312E-3
53 96 4.76480486080035E-3
53 97 4.53998292177005E-3
53 98 4.32096521145483E-3
53 99 4.107946424861764E-3
53 100 3.901092271952699E-3
53 101 3.7005401884686075E-3
53 102 3.5064001643299895E-3
53 103 3.3187556783199905E-3
53 104 3.1376647275268414E-3
53 105 2.9631609399036283E-3
53 106 2.795254758291549E-3
53 107 2.633934684342309E-3
53 108 2.4791685709596527E-3
53 109 2.330904952152349E-3
53 110 2.1890743995435897E-3
53 111 2.0535908952067335E-3
53 112 1.9243532109863046E-3
53 113 1.8012462850076334E-3
53 114 1.6841425866698377E-3
53 115 1.5729034620464647E-3
53 116 1.4673804522774983E-3
53 117 1.367416578217387E-3
53 118 1.2728475852982531E-3
53 119 1.183503143267951E-3
53 120 1.0992079961619481E-3
53 121 1.0197830585595082E-3
53 122 9.450464548521614E-4
53 123 8.748144989104668E-4
53 124 8.089026121686099E-4
53 125 7.471261787510978E-4
53 126 6.893013368380249E-4
53 127 6.352457060019391E-4
53 128 5.847790507477894E-4
53 129 5.377238809458774E-4
53 130 4.939059902648149E-4
53 131 4.531549340864822E-4
53 132 4.153044487175457E-4
53 133 3.801928140025063E-4
53 134 3.4766316169206583E-4
53 135 3.175637321289198E-4
53 136 2.8974808198221224E-4
53 137 2.64075245893548E-4
53 138 2.404098549935424E-4
53 139 2.186222153105597E-4
53 140 1.9858834912484408E-4
53 141 1.801900023241393E-4
53 142 1.6331462079362345E-4
53 143 1.478552988261544E-4
53 144 1.3371070247100844E-4
53 145 1.2078497065307907E-4
53 146 1.0898759679241744E-4
53 147 9.8233293538506E-5
53 148 8.844184310713185E-5
53 149 7.953793557242816E-5
53 150 7.145099732471724E-5
53 151 6.41150117582164E-5
53 152 5.746833410330014E-5
53 153 5.1453502167554E-5
54 1 5.429189442633858E-3
54 2 5.4423295108632815E-3
54 3 5.468569679679191E-3
54 4 5.50783007786358E-3
54 5 5.559991059536723E-3
54 6 5.6248933994549125E-3
54 7 5.702338556960332E-3
54 8 5.792089011531602E-3
54 9 5.893868673501295E-3
54 10 6.007363374047548E-3
54 11 6.132221439017737E-3
54 12 6.268054351491565E-3
54 13 6.414437508228838E-3
54 14 6.5709110752649475E-3
54 15 6.73698094790833E-3
54 16 6.912119820253855E-3
54 17 7.095768369051628E-3
54 18 7.287336556361152E-3
54 19 7.486205054877501E-3
54 20 7.691726799142598E-3
54 21 7.903228665055956E-3
54 22 8.120013279183077E-3
54 23 8.341360958334983E-3
54 24 8.56653177877057E-3
54 25 8.794767773166848E-3
54 26 9.025295252225472E-3
54 27 9.257327246452196E-3
54 28 9.49006606227623E-3
54 29 9.722705945286129E-3
54 30 9.954435841966194E-3
54 31 1.018444224994106E-2
54 32 1.041191214539508E-2
54 33 1.0636035975045983E-2
54 34 1.0856010698837444E-2
54 35 1.1071042868390873E-2
54 36 1.1280351725239345E-2
54 37 1.148317230197246E-2
54 38 1.1678758508664736E-2
54 39 1.1866386186354438E-2
54 40 1.2045356108896722E-2
54 41 1.2214996914243275E-2
54 42 1.237466794610845E-2
54 43 1.2523761987074033E-2
54 44 1.2661707864464754E-2
54 45 1.278797291079477E-2
54 46 1.2902065261240632E-2
54 47 1.2952082469266922E-2
54 48 1.3045963895286368E-2
54 49 1.3125933332383884E-2
54 50 1.3191727347011566E-2
54 51 1.3243128390610169E-2
54 52 1.3279965998018756E-2
54 53 1.33021177293305E-2
54 54 1.330950984791183E-2
54 55 1.33021177293305E-2
54 56 1.3279965998018756E-2
54 57 1.3243128390610169E-2
54 58 1.3191727347011566E-2
54 59 1.3125933332383884E-2
54 60 1.3045963895286368E-2
54 61 1.2952082469266922E-2
54 62 1.2844596927137332E-2
54 63 1.2723857899036553E-2
54 64 1.2590256867140038E-2
54 65 1.2444224051501605E-2
54 66 1.2286226103001317E-2
54 67 1.211676362070477E-2
54 68 1.1936368512104304E-2
54 69 1.174560121570136E-2
54 70 1.1545047806193727E-2
54 71 1.1335317003146307E-2
54 72 1.1117037104445721E-2
54 73 1.0890852866066733E-2
54 74 1.0657422349712599E-2
54 75 1.0417413759735424E-2
54 76 1.0171502290401539E-2
54 77 9.920367004047512E-3
54 78 9.664687759983982E-3
54 79 9.405142213157209E-3
54 80 9.142402900584164E-3
54 81 8.87713443244969E-3
54 82 8.609990803507927E-3
54 83 8.341612839080366E-3
54 84 8.072625788505754E-3
54 85 7.803637077389106E-3
54 86 7.535234228435287E-3
54 87 7.267982959054018E-3
54 88 7.002425462304573E-3
54 89 6.739078876126403E-3
54 90 6.478433944192542E-3
54 91 6.220953870141162E-3
54 92 5.967073365401693E-3
54 93 5.717197889348822E-3
54 94 5.471703079103E-3
54 95 5.230934364960887E-3
54 96 4.995206766193312E-3
54 97 4.76480486080035E-3
54 98 4.53998292177005E-3
54 99 4.32096521145483E-3
54 100 4.107946424861764E-3
54 101 3.901092271952699E-3
54 102 3.7005401884686075E-3
54 103 3.5064001643299895E-3
54 104 3.3187556783199905E-3
54 105 3.1376647275268414E-3
54 106 2.9631609399036283E-3
54 107 2.795254758291549E-3
54 108 2.633934684342309E-3
54 109 2.4791685709596527E-3
54 110 2.330904952152349E-3
54 111 2.1890743995435897E-3
54 112 2.0535908952067335E-3
54 113 1.9243532109863046E-3
54 114 1.8012462850076334E-3
54 115 1.6841425866698377E-3
54 116 1.5729034620464647E-3
54 117 1.4673804522774983E-3
54 118 1.367416578217387E-3
54 119 1.2728475852982531E-3
54 120 1.183503143267951E-3
54 121 1.0992079961619481E-3
54 122 1.0197830585595082E-3
54 123 9.450464548521614E-4
54 124 8.748144989104668E-4
54 125 8.089026121686099E-4
54 126 7.471261787510978E-4
54 127 6.893013368380249E-4
54 128 6.352457060019391E-4
54 129 5.847790507477894E-4
54 130 5.377238809458774E-4
54 131 4.939059902648149E-4
54 132 4.531549340864822E-4
54 133 4.153044487175457E-4
54 134 3.801928140025063E-4
54 135 3.4766316169206583E-4
54 136 3.175637321289198E-4
54 137 2.8974808198221224E-4
54 138 2.64075245893548E-4
54 139 2.404098549935424E-4
54 140 2.186222153105597E-4
54 141 1.9858834912484408E-4
54 142 1.801900023241393E-4
54 143 1.6331462079362345E-4
54 144 1.478552988261544E-4
54 145 1.3371070247100844E-4
54 146 1.2078497065307907E-4
54 147 1.0898759679241744E-4
54 148 9.8233293538506E-5
54 149 8.844184310713185E-5
54 150 7.953793557242816E-5
54 151 7.145099732471724E-5
54 152 6.41150117582164E-5
54 153 5.746833410330014E-5
54 154 5.1453502167554E-5
55 1 5.113103255301962E-3
55 2 5.126159710443898E-3
55 3 5.152235339447218E-3
55 4 5.191255622733575E-3
55 5 5.243108889306295E-3
55 6 5.307646449337623E-3
55 7 5.384682775138445E-3
55 8 5.473995733999164E-3
55 9 5.5753268771392625E-3
55 10 5.688381789672217E-3
55 11 5.812830507068303E-3
55 12 5.9483080040683015E-3
55 13 6.09441476235526E-3
55 14 6.250717423520395E-3
55 15 6.416749533955162E-3
55 16 6.592012388259289E-3
55 17 6.7759759775703025E-3
55 18 6.96808004889226E-3
55 19 7.1677352810305675E-3
55 20 7.374324582128342E-3
55 21 7.587204513052362E-3
55 22 7.805706839999895E-3
55 23 8.029140218700102E-3
55 24 8.256792011475588E-3
55 25 8.4879302372233E-3
55 26 8.721805653082872E-3
55 27 8.957653965199992E-3
55 28 9.19469816457861E-3
55 29 9.432150982566376E-3
55 30 9.669217459050757E-3
55 31 9.905097614977524E-3
55 32 1.0138989219358071E-2
55 33 1.0370090639526383E-2
55 34 1.0597603762059564E-2
55 35 1.0820736970506221E-2
55 36 1.1038708164892887E-2
55 37 1.125074780691673E-2
55 38 1.1456101973799386E-2
55 39 1.1654035402986145E-2
55 40 1.1843834509239865E-2
55 41 1.2024810355211437E-2
55 42 1.2196301556277198E-2
55 43 1.2357677100326033E-2
55 44 1.2508339063259821E-2
55 45 1.2647725201243338E-2
55 46 1.2723857899036553E-2
55 47 1.2844596927137332E-2
55 48 1.2952082469266922E-2
55 49 1.3045963895286368E-2
55 50 1.3125933332383884E-2
55 51 1.3191727347011566E-2
55 52 1.3243128390610169E-2
55 53 1.3279965998018756E-2
55 54 1.33021177293305E-2
55 55 1.330950984791183E-2
55 56 1.33021177293305E-2
55 57 1.3279965998018756E-2
55 58 1.3243128390610169E-2
55 59 1.3191727347011566E-2
55 60 1.3125933332383884E-2
55 61 1.3045963895286368E-2
55 62 1.2952082469266922E-2
55 63 1.2844596927137332E-2
55 64 1.2723857899036553E-2
55 65 1.2590256867140038E-2
55 66 1.2444224051501605E-2
55 67 1.2286226103001317E-2
55 68 1.211676362070477E-2
55 69 1.1936368512104304E-2
55 70 1.174560121570136E-2
55 71 1.1545047806193727E-2
55 72 1.1335317003146307E-2
55 73 1.1117037104445721E-2
55 74 1.0890852866066733E-2
55 75 1.0657422349712599E-2
55 76 1.0417413759735424E-2
55 77 1.0171502290401539E-2
55 78 9.920367004047512E-3
55 79 9.664687759983982E-3
55 80 9.405142213157209E-3
55 81 9.142402900584164E-3
55 82 8.87713443244969E-3
55 83 8.609990803507927E-3
55 84 8.341612839080366E-3
55 85 8.072625788505754E-3
55 86 7.803637077389106E-3
55 87 7.535234228435287E-3
55 88 7.267982959054018E-3
55 89 7.002425462304573E-3
55 90 6.739078876126403E-3
55 91 6.478433944192542E-3
55 92 6.220953870141162E-3
55 93 5.967073365401693E-3
55 94 5.717197889348822E-3
55 95 5.471703079103E-3
55 96 5.230934364960887E-3
55 97 4.995206766193312E-3
55 98 4.76480486080035E-3
55 99 4.53998292177005E-3
55 100 4.32096521145483E-3
55 101 4.107946424861764E-3
55 102 3.901092271952699E-3
55 103 3.7005401884686075E-3
55 104 3.5064001643299895E-3
55 105 3.3187556783199905E-3
55 106 3.1376647275268414E-3
55 107 2.9631609399036283E-3
55 108 2.795254758291549E-3
55 109 2.633934684342309E-3
55 110 2.4791685709596527E-3
55 111 2.330904952152349E-3
55 112 2.1890743995435897E-3
55 113 2.0535908952067335E-3
55 114 1.9243532109863046E-3
55 115 1.8012462850076334E-3
55 116 1.6841425866698377E-3
55 117 1.5729034620464647E-3
55 118 1.4673804522774983E-3
55 119 1.367416578217387E-3
55 120 1.2728475852982531E-3
55 121 1.183503143267951E-3
55 122 1.0992079961619481E-3
55 123 1.0197830585595082E-3
55 124 9.450464548521614E-4
55 125 8.748144989104668E-4
55 126 8.089026121686099E-4
55 127 7.471261787510978E-4
55 128 6.893013368380249E-4
55 129 6.352457060019391E-4
55 130 5.847790507477894E-4
55 131 5.377238809458774E-4
55 132 4.939059902648149E-4
55 133 4.531549340864822E-4
55 134 4.153044487175457E-4
55 135 3.801928140025063E-4
55 136 3.4766316169206583E-4
55 137 3.175637321289198E-4
55 138 2.8974808198221224E-4
55 139 2.64075245893548E-4
55 140 2.404098549935424E-4
55 141 2.186222153105597E-4
55 142 1.9858834912484408E-4
55 143 1.801900023241393E-4
55 144 1.6331462079362345E-4
55 145 1.478552988261544E-4
55 146 1.3371070247100844E-4
55 147 1.2078497065307907E-4
55 148 1.0898759679241744E-4
55 149 9.8233293538506E-5
55 150 8.844184310713185E-5
55 151 7.953793557242816E-5
55 152 7.145099732471724E-5
55 153 6.41150117582164E-5
55 154 5.746833410330014E-5
55 155 5.1453502167554E-5
56 1 4.810073523112001E-3
56 2 4.823009083885899E-3
56 3 4.8488456534982825E-3
56 4 4.887514150889933E-3
56 5 4.938911012534475E-3
56 6 5.002898264989828E-3
56 7 5.0793036263764545E-3
56 8 5.167920640746106E-3
56 9 5.268508850170086E-3
56 10 5.380794010160017E-3
56 11 5.504468354722781E-3
56 12 5.639190917931998E-3
56 13 5.784587919359858E-3
56 14 5.940253221045474E-3
56 15 6.105748863871353E-3
56 16 6.280605691271609E-3
56 17 6.46432406809992E-3
56 18 6.656374702239718E-3
56 19 6.8561995761431006E-3
56 20 7.063212994940332E-3
56 21 7.2768027570722805E-3
56 22 7.4963314525693875E-3
56 23 7.7211378931405E-3
56 24 7.950538677152832E-3
56 25 8.183829891391612E-3
56 26 8.42028895019782E-3
56 27 8.659176571209286E-3
56 28 8.899738885490139E-3
56 29 9.141209678343238E-3
56 30 9.382812755577705E-3
56 31 9.623764428467768E-3
56 32 9.863276109108827E-3
56 33 1.0100557006371651E-2
56 34 1.0334816911195161E-2
56 35 1.0565269058561578E-2
56 36 1.0791133052183608E-2
56 37 1.1011637836719813E-2
56 38 1.1226024701238138E-2
56 39 1.1433550296684813E-2
56 40 1.163348964930086E-2
56 41 1.1825139151273787E-2
56 42 1.2007819509429021E-2
56 43 1.2180878632462986E-2
56 44 1.2343694437104617E-2
56 45 1.2444224051501605E-2
56 46 1.2590256867140038E-2
56 47 1.2723857899036553E-2
56 48 1.2844596927137332E-2
56 49 1.2952082469266922E-2
56 50 1.3045963895286368E-2
56 51 1.3125933332383884E-2
56 52 1.3191727347011566E-2
56 53 1.3243128390610169E-2
56 54 1.3279965998018756E-2
56 55 1.33021177293305E-2
56 56 1.330950984791183E-2
56 57 1.33021177293305E-2
56 58 1.3279965998018756E-2
56 59 1.3243128390610169E-2
56 60 1.3191727347011566E-2
56 61 1.3125933332383884E-2
56 62 1.3045963895286368E-2
56 63 1.2952082469266922E-2
56 64 1.2844596927137332E-2
56 65 1.2723857899036553E-2
56 66 1.2590256867140038E-2
56 67 1.2444224051501605E-2
56 68 1.2286226103001317E-2
56 69 1.211676362070477E-2
56 70 1.1936368512104304E-2
56 71 1.174560121570136E-2
56 72 1.1545047806193727E-2
56 73 1.1335317003146307E-2
56 74 1.1117037104445721E-2
56 75 1.0890852866066733E-2
56 76 1.0657422349712599E-2
56 77 1.0417413759735424E-2
56 78 1.0171502290401539E-2
56 79 9.920367004047512E-3
56 80 9.664687759983982E-3
56 81 9.405142213157209E-3
56 82 9.142402900584164E-3
56 83 8.87713443244969E-3
56 84 8.609990803507927E-3
56 85 8.341612839080366E-3
56 86 8.072625788505754E-3
56 87 7.803637077389106E-3
56 88 7.535234228435287E-3
56 89 7.267982959054018E-3
56 90 7.002425462304573E-3
56 91 6.739078876126403E-3
56 92 6.478433944192542E-3
56 93 6.220953870141162E-3
56 94 5.967073365401693E-3
56 95 5.717197889348822E-3
56 96 5.471703079103E-3
56 97 5.230934364960887E-3
56 98 4.995206766193312E-3
56 99 4.76480486080035E-3
56 100 4.53998292177005E-3
56 101 4.32096521145483E-3
56 102 4.107946424861764E-3
56 103 3.901092271952699E-3
56 104 3.7005401884686075E-3
56 105 3.5064001643299895E-3
56 106 3.3187556783199905E-3
56 107 3.1376647275268414E-3
56 108 2.9631609399036283E-3
56 109 2.795254758291549E-3
56 110 2.633934684342309E-3
56 111 2.4791685709596527E-3
56 112 2.330904952152349E-3
56 113 2.1890743995435897E-3
56 114 2.0535908952067335E-3
56 115 1.9243532109863046E-3
56 116 1.8012462850076334E-3
56 117 1.6841425866698377E-3
56 118 1.5729034620464647E-3
56 119 1.4673804522774983E-3
56 120 1.367416578217387E-3
56 121 1.2728475852982531E-3
56 122 1.183503143267951E-3
56 123 1.0992079961619481E-3
56 124 1.0197830585595082E-3
56 125 9.450464548521614E-4
56 126 8.748144989104668E-4
56 127 8.089026121686099E-4
56 128 7.471261787510978E-4
56 129 6.893013368380249E-4
56 130 6.352457060019391E-4
56 131 5.847790507477894E-4
56 132 5.377238809458774E-4
56 133 4.939059902648149E-4
56 134 4.531549340864822E-4
56 135 4.153044487175457E-4
56 136 3.801928140025063E-4
56 137 3.4766316169206583E-4
56 138 3.175637321289198E-4
56 139 2.8974808198221224E-4
56 140 2.64075245893548E-4
56 141 2.404098549935424E-4
56 142 2.186222153105597E-4
56 143 1.9858834912484408E-4
56 144 1.801900023241393E-4
56 145 1.6331462079362345E-4
56 146 1.478552988261544E-4
56 147 1.3371070247100844E-4
56 148 1.2078497065307907E-4
56 149 1.0898759679241744E-4
56 150 9.8233293538506E-5
56 151 8.844184310713185E-5
56 152 7.953793557242816E-5
56 153 7.145099732471724E-5
56 154 6.41150117582164E-5
56 155 5.746833410330014E-5
56 156 5.1453502167554E-5
57 1 4.519979351695938E-3
57 2 4.532759466166386E-3
57 3 4.558287895328614E-3
57 4 4.596501043299182E-3
57 5 4.647303526573466E-3
57 6 4.710568189573306E-3
57 7 4.786136130597489E-3
57 8 4.8738167425473765E-3
57 9 4.973387773766861E-3
57 10 5.08459541522065E-3
57 11 5.207154421023713E-3
57 12 5.340748270014338E-3
57 13 5.4850293766222115E-3
57 14 5.639619359710817E-3
57 15 5.804109378361922E-3
57 16 5.978060543711985E-3
57 17 6.161004415941025E-3
57 18 6.352443595350761E-3
57 19 6.551852416149482E-3
57 20 6.758677751087039E-3
57 21 6.972339934457357E-3
57 22 7.192233810212886E-3
57 23 7.4177299110221185E-3
57 24 7.648175773056524E-3
57 25 7.882897390127354E-3
57 26 8.121200809518026E-3
57 27 8.362373870487966E-3
57 28 8.605688084973914E-3
57 29 8.850400658501468E-3
57 30 9.09575664776025E-3
57 31 9.340991249709009E-3
57 32 9.585332215481348E-3
57 33 9.828002380777606E-3
57 34 1.0068222302873665E-2
57 35 1.0305212992872547E-2
57 36 1.0538198730388504E-2
57 37 1.0766409946505016E-2
57 38 1.0989086159605239E-2
57 39 1.1205478947552854E-2
57 40 1.1414854938718735E-2
57 41 1.1616498803518444E-2
57 42 1.1809716227459575E-2
57 43 1.1993836846207605E-2
57 44 1.211676362070477E-2
57 45 1.2286226103001317E-2
57 46 1.2444224051501605E-2
57 47 1.2590256867140038E-2
57 48 1.2723857899036553E-2
57 49 1.2844596927137332E-2
57 50 1.2952082469266922E-2
57 51 1.3045963895286368E-2
57 52 1.3125933332383884E-2
57 53 1.3191727347011566E-2
57 54 1.3243128390610169E-2
57 55 1.3279965998018756E-2
57 56 1.33021177293305E-2
57 57 1.330950984791183E-2
57 58 1.33021177293305E-2
57 59 1.3279965998018756E-2
57 60 1.3243128390610169E-2
57 61 1.3191727347011566E-2
57 62 1.3125933332383884E-2
57 63 1.3045963895286368E-2
57 64 1.2952082469266922E-2
57 65 1.2844596927137332E-2
57 66 1.2723857899036553E-2
57 67 1.2590256867140038E-2
57 68 1.2444224051501605E-2
57 69 1.2286226103001317E-2
57 70 1.211676362070477E-2
57 71 1.1936368512104304E-2
57 72 1.174560121570136E-2
57 73 1.1545047806193727E-2
57 74 1.1335317003146307E-2
57 75 1.1117037104445721E-2
57 76 1.0890852866066733E-2
57 77 1.0657422349712599E-2
57 78 1.0417413759735424E-2
57 79 1.0171502290401539E-2
57 80 9.920367004047512E-3
57 81 9.664687759983982E-3
57 82 9.405142213157209E-3
57 83 9.142402900584164E-3
57 84 8.87713443244969E-3
57 85 8.609990803507927E-3
57 86 8.341612839080366E-3
57 87 8.072625788505754E-3
57 88 7.803637077389106E-3
57 89 7.535234228435287E-3
57 90 7.267982959054018E-3
57 91 7.002425462304573E-3
57 92 6.739078876126403E-3
57 93 6.478433944192542E-3
57 94 6.220953870141162E-3
57 95 5.967073365401693E-3
57 96 5.717197889348822E-3
57 97 5.471703079103E-3
57 98 5.230934364960887E-3
57 99 4.995206766193312E-3
57 100 4.76480486080035E-3
57 101 4.53998292177005E-3
57 102 4.32096521145483E-3
57 103 4.107946424861764E-3
57 104 3.901092271952699E-3
57 105 3.7005401884686075E-3
57 106 3.5064001643299895E-3
57 107 3.3187556783199905E-3
57 108 3.1376647275268414E-3
57 109 2.9631609399036283E-3
57 110 2.795254758291549E-3
57 111 2.633934684342309E-3
57 112 2.4791685709596527E-3
57 113 2.330904952152349E-3
57 114 2.1890743995435897E-3
57 115 2.0535908952067335E-3
57 116 1.9243532109863046E-3
57 117 1.8012462850076334E-3
57 118 1.6841425866698377E-3
57 119 1.5729034620464647E-3
57 120 1.4673804522774983E-3
57 121 1.367416578217387E-3
57 122 1.2728475852982531E-3
57 123 1.183503143267951E-3
57 124 1.0992079961619481E-3
57 125 1.0197830585595082E-3
57 126 9.450464548521614E-4
57 127 8.748144989104668E-4
57 128 8.089026121686099E-4
57 129 7.471261787510978E-4
57 130 6.893013368380249E-4
57 131 6.352457060019391E-4
57 132 5.847790507477894E-4
57 133 5.377238809458774E-4
57 134 4.939059902648149E-4
57 135 4.531549340864822E-4
57 136 4.153044487175457E-4
57 137 3.801928140025063E-4
57 138 3.4766316169206583E-4
57 139 3.175637321289198E-4
57 140 2.8974808198221224E-4
57 141 2.64075245893548E-4
57 142 2.404098549935424E-4
57 143 2.186222153105597E-4
57 144 1.9858834912484408E-4
57 145 1.801900023241393E-4
57 146 1.6331462079362345E-4
57 147 1.478552988261544E-4
57 148 1.3371070247100844E-4
57 149 1.2078497065307907E-4
57 150 1.0898759679241744E-4
57 151 9.8233293538506E-5
57 152 8.844184310713185E-5
57 153 7.953793557242816E-5
57 154 7.145099732471724E-5
57 155 6.41150117582164E-5
57 156 5.746833410330014E-5
57 157 5.1453502167554E-5
58 1 4.242665294750323E-3
58 2 4.255258163138653E-3
58 3 4.280414855967286E-3
58 4 4.318077271012147E-3
58 5 4.368158220338014E-3
58 6 4.430541392181127E-3
58 7 4.505081305744228E-3
58 8 4.591603263618243E-3
58 9 4.689903307597941E-3
58 10 4.799748184630555E-3
58 11 4.920875330512208E-3
58 12 5.052992879713926E-3
58 13 5.195779710365296E-3
58 14 5.34888553393866E-3
58 15 5.511931039551448E-3
58 16 5.684508103031337E-3
58 17 5.866180070962825E-3
58 18 6.056482129850789E-3
58 19 6.2549217702947E-3
58 20 6.460979355666508E-3
58 21 6.674108804227644E-3
58 22 6.893738392910088E-3
58 23 7.11927169012891E-3
58 24 7.3500886239966385E-3
58 25 7.585546691182938E-3
58 26 7.8249823104175E-3
58 27 8.067712323282654E-3
58 28 8.313035643499295E-3
58 29 8.560235054390925E-3
58 30 8.808579152632771E-3
58 31 9.05732443477383E-3
58 32 9.305717521377786E-3
58 33 9.552997511983363E-3
58 34 9.79839846245499E-3
58 35 1.0041151974700591E-2
58 36 1.0280489887193956E-2
58 37 1.051564705327393E-2
58 38 1.0745864192819731E-2
58 39 1.0970390801639161E-2
58 40 1.1188488101770437E-2
58 41 1.1399432014904523E-2
58 42 1.1602516140297028E-2
58 43 1.174560121570136E-2
58 44 1.1936368512104304E-2
58 45 1.211676362070477E-2
58 46 1.2286226103001317E-2
58 47 1.2444224051501605E-2
58 48 1.2590256867140038E-2
58 49 1.2723857899036553E-2
58 50 1.2844596927137332E-2
58 51 1.2952082469266922E-2
58 52 1.3045963895286368E-2
58 53 1.3125933332383884E-2
58 54 1.3191727347011566E-2
58 55 1.3243128390610169E-2
58 56 1.3279965998018756E-2
58 57 1.33021177293305E-2
58 58 1.330950984791183E-2
58 59 1.33021177293305E-2
58 60 1.3279965998018756E-2
58 61 1.3243128390610169E-2
58 62 1.3191727347011566E-2
58 63 1.3125933332383884E-2
58 64 1.3045963895286368E-2
58 65 1.2952082469266922E-2
58 66 1.2844596927137332E-2
58 67 1.2723857899036553E-2
58 68 1.2590256867140038E-2
58 69 1.2444224051501605E-2
58 70 1.2286226103001317E-2
58 71 1.211676362070477E-2
58 72 1.1936368512104304E-2
58 73 1.174560121570136E-2
58 74 1.1545047806193727E-2
58 75 1.1335317003146307E-2
58 76 1.1117037104445721E-2
58 77 1.0890852866066733E-2
58 78 1.0657422349712599E-2
58 79 1.0417413759735424E-2
58 80 1.0171502290401539E-2
58 81 9.920367004047512E-3
58 82 9.664687759983982E-3
58 83 9.405142213157209E-3
58 84 9.142402900584164E-3
58 85 8.87713443244969E-3
58 86 8.609990803507927E-3
58 87 8.341612839080366E-3
58 88 8.072625788505754E-3
58 89 7.803637077389106E-3
58 90 7.535234228435287E-3
58 91 7.267982959054018E-3
58 92 7.002425462304573E-3
58 93 6.739078876126403E-3
58 94 6.478433944192542E-3
58 95 6.220953870141162E-3
58 96 5.967073365401693E-3
58 97 5.717197889348822E-3
58 98 5.471703079103E-3
58 99 5.230934364960887E-3
58 100 4.995206766193312E-3
58 101 4.76480486080035E-3
58 102 4.53998292177005E-3
58 103 4.32096521145483E-3
58 104 4.107946424861764E-3
58 105 3.901092271952699E-3
58 106 3.7005401884686075E-3
58 107 3.5064001643299895E-3
58 108 3.3187556783199905E-3
58 109 3.1376647275268414E-3
58 110 2.9631609399036283E-3
58 111 2.795254758291549E-3
58 112 2.633934684342309E-3
58 113 2.4791685709596527E-3
58 114 2.330904952152349E-3
58 115 2.1890743995435897E-3
58 116 2.0535908952067335E-3
58 117 1.9243532109863046E-3
58 118 1.8012462850076334E-3
58 119 1.6841425866698377E-3
58 120 1.5729034620464647E-3
58 121 1.4673804522774983E-3
58 122 1.367416578217387E-3
58 123 1.2728475852982531E-3
58 124 1.183503143267951E-3
58 125 1.0992079961619481E-3
58 126 1.0197830585595082E-3
58 127 9.450464548521614E-4
58 128 8.748144989104668E-4
58 129 8.089026121686099E-4
58 130 7.471261787510978E-4
58 131 6.893013368380249E-4
58 132 6.352457060019391E-4
58 133 5.847790507477894E-4
58 134 5.377238809458774E-4
58 135 4.939059902648149E-4
58 136 4.531549340864822E-4
58 137 4.153044487175457E-4
58 138 3.801928140025063E-4
58 139 3.4766316169206583E-4
58 140 3.175637321289198E-4
58 141 2.8974808198221224E-4
58 142 2.64075245893548E-4
58 143 2.404098549935424E-4
58 144 2.186222153105597E-4
58 145 1.9858834912484408E-4
58 146 1.801900023241393E-4
58 147 1.6331462079362345E-4
58 148 1.478552988261544E-4
58 149 1.3371070247100844E-4
58 150 1.2078497065307907E-4
58 151 1.0898759679241744E-4
58 152 9.8233293538506E-5
58 153 8.844184310713185E-5
58 154 7.953793557242816E-5
58 155 7.145099732471724E-5
58 156 6.41150117582164E-5
58 157 5.746833410330014E-5
58 158 5.1453502167554E-5
59 1 3.977944106193038E-3
59 2 3.990320684551223E-3
59 3 4.015047538822187E-3
59 4 4.052072033006117E-3
59 5 4.101315136619807E-3
59 6 4.162671336508936E-3
59 7 4.236008525201881E-3
59 8 4.321167870794792E-3
59 9 4.417963674481939E-3
59 10 4.526183222889498E-3
59 11 4.645586643320769E-3
59 12 4.775906770863166E-3
59 13 4.9168490370303745E-3
59 14 5.068091390205928E-3
59 15 5.229284258608075E-3
59 16 5.400050566802289E-3
59 17 5.5799858169411016E-3
59 18 5.768658245906764E-3
59 19 5.965609069367815E-3
59 20 6.170352823435305E-3
59 21 6.382377814119239E-3
59 22 6.601146684143668E-3
59 23 6.826097105884608E-3
59 24 7.056642608255323E-3
59 25 7.292173544286785E-3
59 26 7.532058204947565E-3
59 27 7.77564408342883E-3
59 28 8.022259292699665E-3
59 29 8.271214137630599E-3
59 30 8.521802841404505E-3
59 31 8.77330542430155E-3
59 32 9.024989731275844E-3
59 33 9.276113603055173E-3
59 34 9.525927183810288E-3
59 35 9.773675356776399E-3
59 36 1.0018600297586017E-2
59 37 1.0259944133508671E-2
59 38 1.0496951695307852E-2
59 39 1.0728873347037315E-2
59 40 1.095496787782495E-2
59 41 1.1174505438549021E-2
59 42 1.1335317003146307E-2
59 43 1.1545047806193727E-2
59 44 1.174560121570136E-2
59 45 1.1936368512104304E-2
59 46 1.211676362070477E-2
59 47 1.2286226103001317E-2
59 48 1.2444224051501605E-2
59 49 1.2590256867140038E-2
59 50 1.2723857899036553E-2
59 51 1.2844596927137332E-2
59 52 1.2952082469266922E-2
59 53 1.3045963895286368E-2
59 54 1.3125933332383884E-2
59 55 1.3191727347011566E-2
59 56 1.3243128390610169E-2
59 57 1.3279965998018756E-2
59 58 1.33021177293305E-2
59 59 1.330950984791183E-2
59 60 1.33021177293305E-2
59 61 1.3279965998018756E-2
59 62 1.3243128390610169E-2
59 63 1.3191727347011566E-2
59 64 1.3125933332383884E-2
59 65 1.3045963895286368E-2
59 66 1.2952082469266922E-2
59 67 1.2844596927137332E-2
59 68 1.2723857899036553E-2
59 69 1.2590256867140038E-2
59 70 1.2444224051501605E-2
59 71 1.2286226103001317E-2
59 72 1.211676362070477E-2
59 73 1.1936368512104304E-2
59 74 1.174560121570136E-2
59 75 1.1545047806193727E-2
59 76 1.1335317003146307E-2
59 77 1.1117037104445721E-2
59 78 1.0890852866066733E-2
59 79 1.0657422349712599E-2
59 80 1.0417413759735424E-2
59 81 1.0171502290401539E-2
59 82 9.920367004047512E-3
59 83 9.664687759983982E-3
59 84 9.405142213157209E-3
59 85 9.142402900584164E-3
59 86 8.87713443244969E-3
59 87 8.609990803507927E-3
59 88 8.341612839080366E-3
59 89 8.072625788505754E-3
59 90 7.803637077389106E-3
59 91 7.535234228435287E-3
59 92 7.267982959054018E-3
59 93 7.002425462304573E-3
59 94 6.739078876126403E-3
59 95 6.478433944192542E-3
59 96 6.220953870141162E-3
59 97 5.967073365401693E-3
59 98 5.717197889348822E-3
59 99 5.471703079103E-3
59 100 5.230934364960887E-3
59 101 4.995206766193312E-3
59 102 4.76480486080035E-3
59 103 4.53998292177005E-3
59 104 4.32096521145483E-3
59 105 4.107946424861764E-3
59 106 3.901092271952699E-3
59 107 3.7005401884686075E-3
59 108 3.5064001643299895E-3
59 109 3.3187556783199905E-3
59 110 3.1376647275268414E-3
59 111 2.9631609399036283E-3
59 112 2.795254758291549E-3
59 113 2.633934684342309E-3
59 114 2.4791685709596527E-3
59 115 2.330904952152349E-3
59 116 2.1890743995435897E-3
59 117 2.0535908952067335E-3
59 118 1.9243532109863046E-3
59 119 1.8012462850076334E-3
59 120 1.6841425866698377E-3
59 121 1.5729034620464647E-3
59 122 1.4673804522774983E-3
59 123 1.367416578217387E-3
59 124 1.2728475852982531E-3
59 125 1.183503143267951E-3
59 126 1.0992079961619481E-3
59 127 1.0197830585595082E-3
59 128 9.450464548521614E-4
59 129 8.748144989104668E-4
59 130 8.089026121686099E-4
59 131 7.471261787510978E-4
59 132 6.893013368380249E-4
59 133 6.352457060019391E-4
59 134 5.847790507477894E-4
59 135 5.377238809458774E-4
59 136 4.939059902648149E-4
59 137 4.531549340864822E-4
59 138 4.153044487175457E-4
59 139 3.801928140025063E-4
59 140 3.4766316169206583E-4
59 141 3.175637321289198E-4
59 142 2.8974808198221224E-4
59 143 2.64075245893548E-4
59 144 2.404098549935424E-4
59 145 2.186222153105597E-4
59 146 1.9858834912484408E-4
59 147 1.801900023241393E-4
59 148 1.6331462079362345E-4
59 149 1.478552988261544E-4
59 150 1.3371070247100844E-4
59 151 1.2078497065307907E-4
59 152 1.0898759679241744E-4
59 153 9.8233293538506E-5
59 154 8.844184310713185E-5
59 155 7.953793557242816E-5
59 156 7.145099732471724E-5
59 157 6.41150117582164E-5
59 158 5.746833410330014E-5
59 159 5.1453502167554E-5
60 1 3.725599495993938E-3
60 2 3.7377334818765712E-3
60 3 3.761977861590054E-3
60 4 3.7982854044298475E-3
60 5 3.8465851491770397E-3
60 6 3.906782269640563E-3
60 7 3.9787579015595E-3
60 8 4.062368936065576E-3
60 9 4.1574477860863495E-3
60 10 4.263802133172152E-3
60 11 4.381214663240456E-3
60 12 4.509442800637217E-3
60 13 4.648218450703797E-3
60 14 4.797247761699789E-3
60 15 4.9562109174567685E-3
60 16 5.124761972517839E-3
60 17 5.302528741746228E-3
60 18 5.489112756458127E-3
60 19 5.684089299047369E-3
60 20 5.887007527820546E-3
60 21 6.097390703351329E-3
60 22 6.314736527093759E-3
60 23 6.538517602270082E-3
60 24 6.768182026174754E-3
60 25 7.003154122019951E-3
60 26 7.242835317298115E-3
60 27 7.486605174364578E-3
60 28 7.733822577560131E-3
60 29 7.983827079713245E-3
60 30 8.235940409299376E-3
60 31 8.48946813790652E-3
60 32 8.743701505978935E-3
60 33 8.99791940310277E-3
60 34 9.25139049737658E-3
60 35 9.503375506695715E-3
60 36 9.753129603091115E-3
60 37 9.99990493961994E-3
60 38 1.0242953287726255E-2
60 39 1.048152877149364E-2
60 40 1.07148906838159E-2
60 41 1.0890852866066733E-2
60 42 1.1117037104445721E-2
60 43 1.1335317003146307E-2
60 44 1.1545047806193727E-2
60 45 1.174560121570136E-2
60 46 1.1936368512104304E-2
60 47 1.211676362070477E-2
60 48 1.2286226103001317E-2
60 49 1.2444224051501605E-2
60 50 1.2590256867140038E-2
60 51 1.2723857899036553E-2
60 52 1.2844596927137332E-2
60 53 1.2952082469266922E-2
60 54 1.3045963895286368E-2
60 55 1.3125933332383884E-2
60 56 1.3191727347011566E-2
60 57 1.3243128390610169E-2
60 58 1.3279965998018756E-2
60 59 1.33021177293305E-2
60 60 1.330950984791183E-2
60 61 1.33021177293305E-2
60 62 1.3279965998018756E-2
60 63 1.3243128390610169E-2
60 64 1.3191727347011566E-2
60 65 1.3125933332383884E-2
60 66 1.3045963895286368E-2
60 67 1.2952082469266922E-2
60 68 1.2844596927137332E-2
60 69 1.2723857899036553E-2
60 70 1.2590256867140038E-2
60 71 1.2444224051501605E-2
60 72 1.2286226103001317E-2
60 73 1.211676362070477E-2
60 74 1.1936368512104304E-2
60 75 1.174560121570136E-2
60 76 1.1545047806193727E-2
60 77 1.1335317003146307E-2
60 78 1.1117037104445721E-2
60 79 1.0890852866066733E-2
60 80 1.0657422349712599E-2
60 81 1.0417413759735424E-2
60 82 1.0171502290401539E-2
60 83 9.920367004047512E-3
60 84 9.664687759983982E-3
60 85 9.405142213157209E-3
60 86 9.142402900584164E-3
60 87 8.87713443244969E-3
60 88 8.609990803507927E-3
60 89 8.341612839080366E-3
60 90 8.072625788505754E-3
60 91 7.803637077389106E-3
60 92 7.535234228435287E-3
60 93 7.267982959054018E-3
60 94 7.002425462304573E-3
60 95 6.739078876126403E-3
60 96 6.478433944192542E-3
60 97 6.220953870141162E-3
60 98 5.967073365401693E-3
60 99 5.717197889348822E-3
60 100 5.471703079103E-3
60 101 5.230934364960887E-3
60 102 4.995206766193312E-3
60 103 4.76480486080035E-3
60 104 4.53998292177005E-3
60 105 4.32096521145483E-3
60 106 4.107946424861764E-3
60 107 3.901092271952699E-3
60 108 3.7005401884686075E-3
60 109 3.5064001643299895E-3
60 110 3.3187556783199905E-3
60 111 3.1376647275268414E-3
60 112 2.9631609399036283E-3
60 113 2.795254758291549E-3
60 114 2.633934684342309E-3
60 115 2.4791685709596527E-3
60 116 2.330904952152349E-3
60 117 2.1890743995435897E-3
60 118 2.0535908952067335E-3
60 119 1.9243532109863046E-3
60 120 1.8012462850076334E-3
60 121 1.6841425866698377E-3
60 122 1.5729034620464647E-3
60 123 1.4673804522774983E-3
60 124 1.367416578217387E-3
60 125 1.2728475852982531E-3
60 126 1.183503143267951E-3
60 127 1.0992079961619481E-3
60 128 1.0197830585595082E-3
60 129 9.450464548521614E-4
60 130 8.748144989104668E-4
60 131 8.089026121686099E-4
60 132 7.471261787510978E-4
60 133 6.893013368380249E-4
60 134 6.352457060019391E-4
60 135 5.847790507477894E-4
60 136 5.377238809458774E-4
60 137 4.939059902648149E-4
60 138 4.531549340864822E-4
60 139 4.153044487175457E-4
60 140 3.801928140025063E-4
60 141 3.4766316169206583E-4
60 142 3.175637321289198E-4
60 143 2.8974808198221224E-4
60 144 2.64075245893548E-4
60 145 2.404098549935424E-4
60 146 2.186222153105597E-4
60 147 1.9858834912484408E-4
60 148 1.801900023241393E-4
60 149 1.6331462079362345E-4
60 150 1.478552988261544E-4
60 151 1.3371070247100844E-4
60 152 1.2078497065307907E-4
60 153 1.0898759679241744E-4
60 154 9.8233293538506E-5
60 155 8.844184310713185E-5
60 156 7.953793557242816E-5
60 157 7.145099732471724E-5
60 158 6.41150117582164E-5
60 159 5.746833410330014E-5
60 160 5.1453502167554E-5
61 1 3.4853888716774714E-3
61 2 3.497256673032769E-3
61 3 3.520971347484232E-3
61 4 3.5564909777609766E-3
61 5 3.6037525374506022E-3
61 6 3.6626717142276034E-3
61 7 3.733142680504257E-3
61 8 3.815037816851057E-3
61 9 3.90820739475579E-3
61 10 4.012479226437308E-3
61 11 4.1276582904886E-3
61 12 4.2535263430810875E-3
61 13 4.389841525306633E-3
61 14 4.536337977954638E-3
61 15 4.6927254756095535E-3
61 16 4.858689092400707E-3
61 17 5.0338889120348645E-3
61 18 5.217959794886833E-3
61 19 5.410511214910858E-3
61 20 5.611127178963393E-3
61 21 5.819366240795066E-3
61 22 6.034761621477742E-3
61 23 6.256821447383905E-3
61 24 6.485029116034709E-3
61 25 6.718843799186085E-3
61 26 6.957701091436963E-3
61 27 7.201013811429417E-3
61 28 7.448172961378157E-3
61 29 7.698548849228911E-3
61 30 7.95149237621526E-3
61 31 8.206336490976763E-3
61 32 8.462397809733445E-3
61 33 8.718978400300344E-3
61 34 8.975367725988196E-3
61 35 9.230844743691296E-3
61 36 9.484680148729637E-3
61 37 9.736138757308698E-3
61 38 9.984482015805728E-3
61 39 1.0228970624504839E-2
61 40 1.0417413759735424E-2
61 41 1.0657422349712599E-2
61 42 1.0890852866066733E-2
61 43 1.1117037104445721E-2
61 44 1.1335317003146307E-2
61 45 1.1545047806193727E-2
61 46 1.174560121570136E-2
61 47 1.1936368512104304E-2
61 48 1.211676362070477E-2
61 49 1.2286226103001317E-2
61 50 1.2444224051501605E-2
61 51 1.2590256867140038E-2
61 52 1.2723857899036553E-2
61 53 1.2844596927137332E-2
61 54 1.2952082469266922E-2
61 55 1.3045963895286368E-2
61 56 1.3125933332383884E-2
61 57 1.3191727347011566E-2
61 58 1.3243128390610169E-2
61 59 1.3279965998018756E-2
61 60 1.33021177293305E-2
61 61 1.330950984791183E-2
61 62 1.33021177293305E-2
61 63 1.3279965998018756E-2
61 64 1.3243128390610169E-2
61 65 1.3191727347011566E-2
61 66 1.3125933332383884E-2
61 67 1.3045963895286368E-2
61 68 1.2952082469266922E-2
61 69 1.2844596927137332E-2
61 70 1.2723857899036553E-2
61 71 1.2590256867140038E-2
61 72 1.2444224051501605E-2
61 73 1.2286226103001317E-2
61 74 1.211676362070477E-2
61 75 1.1936368512104304E-2
61 76 1.174560121570136E-2
61 77 1.1545047806193727E-2
61 78 1.1335317003146307E-2
61 79 1.1117037104445721E-2
61 80 1.0890852866066733E-2
61 81 1.0657422349712599E-2
61 82 1.0417413759735424E-2
61 83 1.0171502290401539E-2
61 84 9.920367004047512E-3
61 85 9.664687759983982E-3
61 86 9.405142213157209E-3
61 87 9.142402900584164E-3
61 88 8.87713443244969E-3
61 89 8.609990803507927E-3
61 90 8.341612839080366E-3
61 91 8.072625788505754E-3
61 92 7.803637077389106E-3
61 93 7.535234228435287E-3
61 94 7.267982959054018E-3
61 95 7.002425462304573E-3
61 96 6.739078876126403E-3
61 97 6.478433944192542E-3
61 98 6.220953870141162E-3
61 99 5.967073365401693E-3
61 100 5.717197889348822E-3
61 101 5.471703079103E-3
61 102 5.230934364960887E-3
61 103 4.995206766193312E-3
61 104 4.76480486080035E-3
61 105 4.53998292177005E-3
61 106 4.32096521145483E-3
61 107 4.107946424861764E-3
61 108 3.901092271952699E-3
61 109 3.7005401884686075E-3
61 110 3.5064001643299895E-3
61 111 3.3187556783199905E-3
61 112 3.1376647275268414E-3
61 113 2.9631609399036283E-3
61 114 2.795254758291549E-3
61 115 2.633934684342309E-3
61 116 2.4791685709596527E-3
61 117 2.330904952152349E-3
61 118 2.1890743995435897E-3
61 119 2.0535908952067335E-3
61 120 1.9243532109863046E-3
61 121 1.8012462850076334E-3
61 122 1.6841425866698377E-3
61 123 1.5729034620464647E-3
61 124 1.4673804522774983E-3
61 125 1.367416578217387E-3
61 126 1.2728475852982531E-3
61 127 1.183503143267951E-3
61 128 1.0992079961619481E-3
61 129 1.0197830585595082E-3
61 130 9.450464548521614E-4
61 131 8.748144989104668E-4
61 132 8.089026121686099E-4
61 133 7.471261787510978E-4
61 134 6.893013368380249E-4
61 135 6.352457060019391E-4
61 136 5.847790507477894E-4
61 137 5.377238809458774E-4
61 138 4.939059902648149E-4
61 139 4.531549340864822E-4
61 140 4.153044487175457E-4
61 141 3.801928140025063E-4
61 142 3.4766316169206583E-4
61 143 3.175637321289198E-4
61 144 2.8974808198221224E-4
61 145 2.64075245893548E-4
61 146 2.404098549935424E-4
61 147 2.186222153105597E-4
61 148 1.9858834912484408E-4
61 149 1.801900023241393E-4
61 150 1.6331462079362345E-4
61 151 1.478552988261544E-4
61 152 1.3371070247100844E-4
61 153 1.2078497065307907E-4
61 154 1.0898759679241744E-4
61 155 9.8233293538506E-5
61 156 8.844184310713185E-5
61 157 7.953793557242816E-5
61 158 7.145099732471724E-5
61 159 6.41150117582164E-5
61 160 5.746833410330014E-5
61 161 5.1453502167554E-5
62 1 3.2570460487163022E-3
62 2 3.2686267372851316E-3
62 3 3.2917697892036915E-3
62 4 3.3264384805049866E-3
62 5 3.3725775428115404E-3
62 6 3.4301129483142972E-3
62 7 3.498951629519161E-3
62 8 3.5789811391944704E-3
62 9 3.6700692572020155E-3
62 10 3.772063552072238E-3
62 11 3.884790906277939E-3
62 12 4.008057015158015E-3
62 13 4.141645870331928E-3
62 14 4.285319239216397E-3
62 15 4.4388161528985766E-3
62 16 4.601852415126579E-3
62 17 4.774120145541312E-3
62 18 4.9552873704875955E-3
62 19 5.144997674802857E-3
62 20 5.342869927885378E-3
62 21 5.5484980970898065E-3
62 22 5.761451161085212E-3
62 23 5.98127313524237E-3
62 24 6.207483220395236E-3
62 25 6.439576085451722E-3
62 26 6.677022293317386E-3
62 27 6.9192688784505425E-3
62 28 7.165740083098196E-3
62 29 7.415838257880172E-3
62 30 7.668944930906295E-3
62 31 7.924422048042185E-3
62 32 8.181613385298171E-3
62 33 8.439846132618872E-3
62 34 8.698432646615059E-3
62 35 8.956672368022119E-3
62 36 9.21385389790888E-3
62 37 9.469257224915425E-3
62 38 9.722156094087282E-3
62 39 9.920367004047512E-3
62 40 1.0171502290401539E-2
62 41 1.0417413759735424E-2
62 42 1.0657422349712599E-2
62 43 1.0890852866066733E-2
62 44 1.1117037104445721E-2
62 45 1.1335317003146307E-2
62 46 1.1545047806193727E-2
62 47 1.174560121570136E-2
62 48 1.1936368512104304E-2
62 49 1.211676362070477E-2
62 50 1.2286226103001317E-2
62 51 1.2444224051501605E-2
62 52 1.2590256867140038E-2
62 53 1.2723857899036553E-2
62 54 1.2844596927137332E-2
62 55 1.2952082469266922E-2
62 56 1.3045963895286368E-2
62 57 1.3125933332383884E-2
62 58 1.3191727347011566E-2
62 59 1.3243128390610169E-2
62 60 1.3279965998018756E-2
62 61 1.33021177293305E-2
62 62 1.330950984791183E-2
62 63 1.33021177293305E-2
62 64 1.3279965998018756E-2
62 65 1.3243128390610169E-2
62 66 1.3191727347011566E-2
62 67 1.3125933332383884E-2
62 68 1.3045963895286368E-2
62 69 1.2952082469266922E-2
62 70 1.2844596927137332E-2
62 71 1.2723857899036553E-2
62 72 1.2590256867140038E-2
62 73 1.2444224051501605E-2
62 74 1.2286226103001317E-2
62 75 1.211676362070477E-2
62 76 1.1936368512104304E-2
62 77 1.174560121570136E-2
62 78 1.1545047806193727E-2
62 79 1.1335317003146307E-2
62 80 1.1117037104445721E-2
62 81 1.0890852866066733E-2
62 82 1.0657422349712599E-2
62 83 1.0417413759735424E-2
62 84 1.0171502290401539E-2
62 85 9.920367004047512E-3
62 86 9.664687759983982E-3
62 87 9.405142213157209E-3
62 88 9.142402900584164E-3
62 89 8.87713443244969E-3
62 90 8.609990803507927E-3
62 91 8.341612839080366E-3
62 92 8.072625788505754E-3
62 93 7.803637077389106E-3
62 94 7.535234228435287E-3
62 95 7.267982959054018E-3
62 96 7.002425462304573E-3
62 97 6.739078876126403E-3
62 98 6.478433944192542E-3
62 99 6.220953870141162E-3
62 100 5.967073365401693E-3
62 101 5.717197889348822E-3
62 102 5.471703079103E-3
62 103 5.230934364960887E-3
62 104 4.995206766193312E-3
62 105 4.76480486080035E-3
62 106 4.53998292177005E-3
62 107 4.32096521145483E-3
62 108 4.107946424861764E-3
62 109 3.901092271952699E-3
62 110 3.7005401884686075E-3
62 111 3.5064001643299895E-3
62 112 3.3187556783199905E-3
62 113 3.1376647275268414E-3
62 114 2.9631609399036283E-3
62 115 2.795254758291549E-3
62 116 2.633934684342309E-3
62 117 2.4791685709596527E-3
62 118 2.330904952152349E-3
62 119 2.1890743995435897E-3
62 120 2.0535908952067335E-3
62 121 1.9243532109863046E-3
62 122 1.8012462850076334E-3
62 123 1.6841425866698377E-3
62 124 1.5729034620464647E-3
62 125 1.4673804522774983E-3
62 126 1.367416578217387E-3
62 127 1.2728475852982531E-3
62 128 1.183503143267951E-3
62 129 1.0992079961619481E-3
62 130 1.0197830585595082E-3
62 131 9.450464548521614E-4
62 132 8.748144989104668E-4
62 133 8.089026121686099E-4
62 134 7.471261787510978E-4
62 135 6.893013368380249E-4
62 136 6.352457060019391E-4
62 137 5.847790507477894E-4
62 138 5.377238809458774E-4
62 139 4.939059902648149E-4
62 140 4.531549340864822E-4
62 141 4.153044487175457E-4
62 142 3.801928140025063E-4
62 143 3.4766316169206583E-4
62 144 3.175637321289198E-4
62 145 2.8974808198221224E-4
62 146 2.64075245893548E-4
62 147 2.404098549935424E-4
62 148 2.186222153105597E-4
62 149 1.9858834912484408E-4
62 150 1.801900023241393E-4
62 151 1.6331462079362345E-4
62 152 1.478552988261544E-4
62 153 1.3371070247100844E-4
62 154 1.2078497065307907E-4
62 155 1.0898759679241744E-4
62 156 9.8233293538506E-5
62 157 8.844184310713185E-5
62 158 7.953793557242816E-5
62 159 7.145099732471724E-5
62 160 6.41150117582164E-5
62 161 5.746833410330014E-5
62 162 5.1453502167554E-5
63 1 3.0402839143239633E-3
63 2 3.0515591648872247E-3
63 3 3.0740938703058864E-3
63 4 3.1078563542542553E-3
63 5 3.1527988913686816E-3
63 6 3.208857458103098E-3
63 7 3.2759514070045104E-3
63 8 3.3539830698701197E-3
63 9 3.442837296510919E-3
63 10 3.542380937042647E-3
63 11 3.6524622767416534E-3
63 12 3.7729104335287806E-3
63 13 3.90353472906778E-3
63 14 4.044124045275867E-3
63 15 4.194446178733422E-3
63 16 4.354247206039182E-3
63 17 4.52325087357931E-3
63 18 4.701158025457336E-3
63 19 4.8876460834621155E-3
63 20 5.08236859292927E-3
63 21 5.284954848175524E-3
63 22 5.495009610854434E-3
63 23 5.712112934096542E-3
63 24 5.935820104659382E-3
63 25 6.165661714526537E-3
63 26 6.401143872465301E-3
63 27 6.641748564986166E-3
63 28 6.886934174952558E-3
63 29 7.136136164775582E-3
63 30 7.388767929707097E-3
63 31 7.644221825227704E-3
63 32 7.901870370927612E-3
63 33 8.161067631612886E-3
63 34 8.421150774652794E-3
63 35 8.681441800832643E-3
63 36 8.941249444207907E-3
63 37 9.199871234687464E-3
63 38 9.405142213157209E-3
63 39 9.664687759983982E-3
63 40 9.920367004047512E-3
63 41 1.0171502290401539E-2
63 42 1.0417413759735424E-2
63 43 1.0657422349712599E-2
63 44 1.0890852866066733E-2
63 45 1.1117037104445721E-2
63 46 1.1335317003146307E-2
63 47 1.1545047806193727E-2
63 48 1.174560121570136E-2
63 49 1.1936368512104304E-2
63 50 1.211676362070477E-2
63 51 1.2286226103001317E-2
63 52 1.2444224051501605E-2
63 53 1.2590256867140038E-2
63 54 1.2723857899036553E-2
63 55 1.2844596927137332E-2
63 56 1.2952082469266922E-2
63 57 1.3045963895286368E-2
63 58 1.3125933332383884E-2
63 59 1.3191727347011566E-2
63 60 1.3243128390610169E-2
63 61 1.3279965998018756E-2
63 62 1.33021177293305E-2
63 63 1.330950984791183E-2
63 64 1.33021177293305E-2
63 65 1.3279965998018756E-2
63 66 1.3243128390610169E-2
63 67 1.3191727347011566E-2
63 68 1.3125933332383884E-2
63 69 1.3045963895286368E-2
63 70 1.2952082469266922E-2
63 71 1.2844596927137332E-2
63 72 1.2723857899036553E-2
63 73 1.2590256867140038E-2
63 74 1.2444224051501605E-2
63 75 1.2286226103001317E-2
63 76 1.211676362070477E-2
63 77 1.1936368512104304E-2
63 78 1.174560121570136E-2
63 79 1.1545047806193727E-2
63 80 1.1335317003146307E-2
63 81 1.1117037104445721E-2
63 82 1.0890852866066733E-2
63 83 1.0657422349712599E-2
63 84 1.0417413759735424E-2
63 85 1.0171502290401539E-2
63 86 9.920367004047512E-3
63 87 9.664687759983982E-3
63 88 9.405142213157209E-3
63 89 9.142402900584164E-3
63 90 8.87713443244969E-3
63 91 8.609990803507927E-3
63 92 8.341612839080366E-3
63 93 8.072625788505754E-3
63 94 7.803637077389106E-3
63 95 7.535234228435287E-3
63 96 7.267982959054018E-3
63 97 7.002425462304573E-3
63 98 6.739078876126403E-3
63 99 6.478433944192542E-3
63 100 6.220953870141162E-3
63 101 5.967073365401693E-3
63 102 5.717197889348822E-3
63 103 5.471703079103E-3
63 104 5.230934364960887E-3
63 105 4.995206766193312E-3
63 106 4.76480486080035E-3
63 107 4.53998292177005E-3
63 108 4.32096521145483E-3
63 109 4.107946424861764E-3
63 110 3.901092271952699E-3
63 111 3.7005401884686075E-3
63 112 3.5064001643299895E-3
63 113 3.3187556783199905E-3
63 114 3.1376647275268414E-3
63 115 2.9631609399036283E-3
63 116 2.795254758291549E-3
63 117 2.633934684342309E-3
63 118 2.4791685709596527E-3
63 119 2.330904952152349E-3
63 120 2.1890743995435897E-3
63 121 2.0535908952067335E-3
63 122 1.9243532109863046E-3
63 123 1.8012462850076334E-3
63 124 1.6841425866698377E-3
63 125 1.5729034620464647E-3
63 126 1.4673804522774983E-3
63 127 1.367416578217387E-3
63 128 1.2728475852982531E-3
63 129 1.183503143267951E-3
63 130 1.0992079961619481E-3
63 131 1.0197830585595082E-3
63 132 9.450464548521614E-4
63 133 8.748144989104668E-4
63 134 8.089026121686099E-4
63 135 7.471261787510978E-4
63 136 6.893013368380249E-4
63 137 6.352457060019391E-4
63 138 5.847790507477894E-4
63 139 5.377238809458774E-4
63 140 4.939059902648149E-4
63 141 4.531549340864822E-4
63 142 4.153044487175457E-4
63 143 3.801928140025063E-4
63 144 3.4766316169206583E-4
63 145 3.175637321289198E-4
63 146 2.8974808198221224E-4
63 147 2.64075245893548E-4
63 148 2.404098549935424E-4
63 149 2.186222153105597E-4
63 150 1.9858834912484408E-4
63 151 1.801900023241393E-4
63 152 1.6331462079362345E-4
63 153 1.478552988261544E-4
63 154 1.3371070247100844E-4
63 155 1.2078497065307907E-4
63 156 1.0898759679241744E-4
63 157 9.8233293538506E-5
63 158 8.844184310713185E-5
63 159 7.953793557242816E-5
63 160 7.145099732471724E-5
63 161 6.41150117582164E-5
63 162 5.746833410330014E-5
63 163 5.1453502167554E-5
64 1 2.8347970304948853E-3
64 2 2.845751047344718E-3
64 3 2.8676457299377884E-3
64 4 2.9004542811695818E-3
64 5 2.9441362695458127E-3
64 6 2.998637350058895E-3
64 7 3.0638888984540567E-3
64 8 3.139807564320959E-3
64 9 3.2262947497107503E-3
64 10 3.3232360211803338E-3
64 11 3.430500464293488E-3
64 12 3.5479399906514176E-3
64 13 3.6753886084727187E-3
64 14 3.8126616685848053E-3
64 15 3.959555098416472E-3
64 16 4.115844637186153E-3
64 17 4.281285085955206E-3
64 18 4.45560958655383E-3
64 19 4.63852894358375E-3
64 20 4.829731003752262E-3
64 21 5.028880106693898E-3
64 22 5.235616621186855E-3
64 23 5.449556580271447E-3
64 24 5.670291428227844E-3
64 25 5.897387891672962E-3
64 26 6.1303879861953165E-3
64 27 6.368809168967316E-3
64 28 6.612144646663551E-3
64 29 6.859863846779482E-3
64 30 7.11141305909699E-3
64 31 7.366216252592523E-3
64 32 7.623676071542419E-3
64 33 7.883175012961534E-3
64 34 8.14407678583047E-3
64 35 8.405727850838582E-3
64 36 8.667459137611227E-3
64 37 8.87713443244969E-3
64 38 9.142402900584164E-3
64 39 9.405142213157209E-3
64 40 9.664687759983982E-3
64 41 9.920367004047512E-3
64 42 1.0171502290401539E-2
64 43 1.0417413759735424E-2
64 44 1.0657422349712599E-2
64 45 1.0890852866066733E-2
64 46 1.1117037104445721E-2
64 47 1.1335317003146307E-2
64 48 1.1545047806193727E-2
64 49 1.174560121570136E-2
64 50 1.1936368512104304E-2
64 51 1.211676362070477E-2
64 52 1.2286226103001317E-2
64 53 1.2444224051501605E-2
64 54 1.2590256867140038E-2
64 55 1.2723857899036553E-2
64 56 1.2844596927137332E-2
64 57 1.2952082469266922E-2
64 58 1.3045963895286368E-2
64 59 1.3125933332383884E-2
64 60 1.3191727347011566E-2
64 61 1.3243128390610169E-2
64 62 1.3279965998018756E-2
64 63 1.33021177293305E-2
64 64 1.330950984791183E-2
64 65 1.33021177293305E-2
64 66 1.3279965998018756E-2
64 67 1.3243128390610169E-2
64 68 1.3191727347011566E-2
64 69 1.3125933332383884E-2
64 70 1.3045963895286368E-2
64 71 1.2952082469266922E-2
64 72 1.2844596927137332E-2
64 73 1.2723857899036553E-2
64 74 1.2590256867140038E-2
64 75 1.2444224051501605E-2
64 76 1.2286226103001317E-2
64 77 1.211676362070477E-2
64 78 1.1936368512104304E-2
64 79 1.174560121570136E-2
64 80 1.1545047806193727E-2
64 81 1.1335317003146307E-2
64 82 1.1117037104445721E-2
64 83 1.0890852866066733E-2
64 84 1.0657422349712599E-2
64 85 1.0417413759735424E-2
64 86 1.0171502290401539E-2
64 87 9.920367004047512E-3
64 88 9.664687759983982E-3
64 89 9.405142213157209E-3
64 90 9.142402900584164E-3
64 91 8.87713443244969E-3
64 92 8.609990803507927E-3
64 93 8.341612839080366E-3
64 94 8.072625788505754E-3
64 95 7.803637077389106E-3
64 96 7.535234228435287E-3
64 97 7.267982959054018E-3
64 98 7.002425462304573E-3
64 99 6.739078876126403E-3
64 100 6.478433944192542E-3
64 101 6.220953870141162E-3
64 102 5.967073365401693E-3
64 103 5.717197889348822E-3
64 104 5.471703079103E-3
64 105 5.230934364960887E-3
64 106 4.995206766193312E-3
64 107 4.76480486080035E-3
64 108 4.53998292177005E-3
64 109 4.32096521145483E-3
64 110 4.107946424861764E-3
64 111 3.901092271952699E-3
64 112 3.7005401884686075E-3
64 113 3.5064001643299895E-3
64 114 3.3187556783199905E-3
64 115 3.1376647275268414E-3
64 116 2.9631609399036283E-3
64 117 2.795254758291549E-3
64 118 2.633934684342309E-3
64 119 2.4791685709596527E-3
64 120 2.330904952152349E-3
64 121 2.1890743995435897E-3
64 122 2.0535908952067335E-3
64 123 1.9243532109863046E-3
64 124 1.8012462850076334E-3
64 125 1.6841425866698377E-3
64 126 1.5729034620464647E-3
64 127 1.4673804522774983E-3
64 128 1.367416578217387E-3
64 129 1.2728475852982531E-3
64 130 1.183503143267951E-3
64 131 1.0992079961619481E-3
64 132 1.0197830585595082E-3
64 133 9.450464548521614E-4
64 134 8.748144989104668E-4
64 135 8.089026121686099E-4
64 136 7.471261787510978E-4
64 137 6.893013368380249E-4
64 138 6.352457060019391E-4
64 139 5.847790507477894E-4
64 140 5.377238809458774E-4
64 141 4.939059902648149E-4
64 142 4.531549340864822E-4
64 143 4.153044487175457E-4
64 144 3.801928140025063E-4
64 145 3.4766316169206583E-4
64 146 3.175637321289198E-4
64 147 2.8974808198221224E-4
64 148 2.64075245893548E-4
64 149 2.404098549935424E-4
64 150 2.186222153105597E-4
64 151 1.9858834912484408E-4
64 152 1.801900023241393E-4
64 153 1.6331462079362345E-4
64 154 1.478552988261544E-4
64 155 1.3371070247100844E-4
64 156 1.2078497065307907E-4
64 157 1.0898759679241744E-4
64 158 9.8233293538506E-5
64 159 8.844184310713185E-5
64 160 7.953793557242816E-5
64 161 7.145099732471724E-5
64 162 6.41150117582164E-5
64 163 5.746833410330014E-5
64 164 5.1453502167554E-5
65 1 2.64026416351564E-3
65 2 2.6508835955454495E-3
65 3 2.6721114582084126E-3
65 4 2.703925645229346E-3
65 5 2.746292739859795E-3
65 6 2.7991677098967715E-3
65 7 2.8624935073753434E-3
65 8 2.9362005782946872E-3
65 9 3.0202062889903743E-3
65 10 3.114414276961592E-3
65 11 3.2187137350900984E-3
65 12 3.3329786392374263E-3
65 13 3.457066930168443E-3
65 14 3.5908196616133235E-3
65 15 3.7340601270375363E-3
65 16 3.8865929783324957E-3
65 17 4.048203350160673E-3
65 18 4.218656004081619E-3
65 19 4.397694506843976E-3
65 20 4.585040457348377E-3
65 21 4.780392776763592E-3
65 22 4.9834270761109105E-3
65 23 5.193795115318156E-3
65 24 5.411124367285026E-3
65 25 5.635017699896623E-3
65 26 5.865053188174977E-3
65 27 6.100784067872702E-3
65 28 6.341738840794241E-3
65 29 6.5874215409849595E-3
65 30 6.837312169664909E-3
65 31 7.0908673054117044E-3
65 32 7.347520894626446E-3
65 33 7.606685225760005E-3
65 34 7.867752089147322E-3
65 35 8.130094122609054E-3
65 36 8.341612839080366E-3
65 37 8.609990803507927E-3
65 38 8.87713443244969E-3
65 39 9.142402900584164E-3
65 40 9.405142213157209E-3
65 41 9.664687759983982E-3
65 42 9.920367004047512E-3
65 43 1.0171502290401539E-2
65 44 1.0417413759735424E-2
65 45 1.0657422349712599E-2
65 46 1.0890852866066733E-2
65 47 1.1117037104445721E-2
65 48 1.1335317003146307E-2
65 49 1.1545047806193727E-2
65 50 1.174560121570136E-2
65 51 1.1936368512104304E-2
65 52 1.211676362070477E-2
65 53 1.2286226103001317E-2
65 54 1.2444224051501605E-2
65 55 1.2590256867140038E-2
65 56 1.2723857899036553E-2
65 57 1.2844596927137332E-2
65 58 1.2952082469266922E-2
65 59 1.3045963895286368E-2
65 60 1.3125933332383884E-2
65 61 1.3191727347011566E-2
65 62 1.3243128390610169E-2
65 63 1.3279965998018756E-2
65 64 1.33021177293305E-2
65 65 1.330950984791183E-2
65 66 1.33021177293305E-2
65 67 1.3279965998018756E-2
65 68 1.3243128390610169E-2
65 69 1.3191727347011566E-2
65 70 1.3125933332383884E-2
65 71 1.3045963895286368E-2
65 72 1.2952082469266922E-2
65 73 1.2844596927137332E-2
65 74 1.2723857899036553E-2
65 75 1.2590256867140038E-2
65 76 1.2444224051501605E-2
65 77 1.2286226103001317E-2
65 78 1.211676362070477E-2
65 79 1.1936368512104304E-2
65 80 1.174560121570136E-2
65 81 1.1545047806193727E-2
65 82 1.1335317003146307E-2
65 83 1.1117037104445721E-2
65 84 1.0890852866066733E-2
65 85 1.0657422349712599E-2
65 86 1.0417413759735424E-2
65 87 1.0171502290401539E-2
65 88 9.920367004047512E-3
65 89 9.664687759983982E-3
65 90 9.405142213157209E-3
65 91 9.142402900584164E-3
65 92 8.87713443244969E-3
65 93 8.609990803507927E-3
65 94 8.341612839080366E-3
65 95 8.072625788505754E-3
65 96 7.803637077389106E-3
65 97 7.535234228435287E-3
65 98 7.267982959054018E-3
65 99 7.002425462304573E-3
65 100 6.739078876126403E-3
65 101 6.478433944192542E-3
65 102 6.220953870141162E-3
65 103 5.967073365401693E-3
65 104 5.717197889348822E-3
65 105 5.471703079103E-3
65 106 5.230934364960887E-3
65 107 4.995206766193312E-3
65 108 4.76480486080035E-3
65 109 4.53998292177005E-3
65 110 4.32096521145483E-3
65 111 4.107946424861764E-3
65 112 3.901092271952699E-3
65 113 3.7005401884686075E-3
65 114 3.5064001643299895E-3
65 115 3.3187556783199905E-3
65 116 3.1376647275268414E-3
65 117 2.9631609399036283E-3
65 118 2.795254758291549E-3
65 119 2.633934684342309E-3
65 120 2.4791685709596527E-3
65 121 2.330904952152349E-3
65 122 2.1890743995435897E-3
65 123 2.0535908952067335E-3
65 124 1.9243532109863046E-3
65 125 1.8012462850076334E-3
65 126 1.6841425866698377E-3
65 127 1.5729034620464647E-3
65 128 1.4673804522774983E-3
65 129 1.367416578217387E-3
65 130 1.2728475852982531E-3
65 131 1.183503143267951E-3
65 132 1.0992079961619481E-3
65 133 1.0197830585595082E-3
65 134 9.450464548521614E-4
65 135 8.748144989104668E-4
65 136 8.089026121686099E-4
65 137 7.471261787510978E-4
65 138 6.893013368380249E-4
65 139 6.352457060019391E-4
65 140 5.847790507477894E-4
65 141 5.377238809458774E-4
65 142 4.939059902648149E-4
65 143 4.531549340864822E-4
65 144 4.153044487175457E-4
65 145 3.801928140025063E-4
65 146 3.4766316169206583E-4
65 147 3.175637321289198E-4
65 148 2.8974808198221224E-4
65 149 2.64075245893548E-4
65 150 2.404098549935424E-4
65 151 2.186222153105597E-4
65 152 1.9858834912484408E-4
65 153 1.801900023241393E-4
65 154 1.6331462079362345E-4
65 155 1.478552988261544E-4
65 156 1.3371070247100844E-4
65 157 1.2078497065307907E-4
65 158 1.0898759679241744E-4
65 159 9.8233293538506E-5
65 160 8.844184310713185E-5
65 161 7.953793557242816E-5
65 162 7.145099732471724E-5
65 163 6.41150117582164E-5
65 164 5.746833410330014E-5
65 165 5.1453502167554E-5
66 1 2.4563507285662043E-3
66 2 2.466624574379335E-3
66 3 2.4871635108370065E-3
66 4 2.5179499168986263E-3
66 5 2.5589570855803047E-3
66 6 2.6101488971762435E-3
66 7 2.671479389737402E-3
66 8 2.7428922320447587E-3
66 9 2.824320105545529E-3
66 10 2.9156840029001384E-3
66 11 3.01689245190553E-3
66 12 3.127840674607124E-3
66 13 3.248409692378031E-3
66 14 3.378465388621174E-3
66 15 3.5178575415293475E-3
66 16 3.6664188400120563E-3
66 17 3.8239638964589094E-3
66 18 3.9902882704508195E-3
66 19 4.165167517846247E-3
66 20 4.348356279855307E-3
66 21 4.53958742676539E-3
66 22 4.738571270894894E-3
66 23 4.94499486312449E-3
66 24 5.158521386986936E-3
66 25 5.378789663787041E-3
66 26 5.605413781574009E-3
66 27 5.8379828600019015E-3
66 28 6.07606096219411E-3
66 29 6.3191871636796675E-3
66 30 6.566875787299674E-3
66 31 6.818616811698831E-3
66 32 7.07387645962929E-3
66 33 7.3320979708122345E-3
66 34 7.5927025625385875E-3
66 35 7.803637077389106E-3
66 36 8.072625788505754E-3
66 37 8.341612839080366E-3
66 38 8.609990803507927E-3
66 39 8.87713443244969E-3
66 40 9.142402900584164E-3
66 41 9.405142213157209E-3
66 42 9.664687759983982E-3
66 43 9.920367004047512E-3
66 44 1.0171502290401539E-2
66 45 1.0417413759735424E-2
66 46 1.0657422349712599E-2
66 47 1.0890852866066733E-2
66 48 1.1117037104445721E-2
66 49 1.1335317003146307E-2
66 50 1.1545047806193727E-2
66 51 1.174560121570136E-2
66 52 1.1936368512104304E-2
66 53 1.211676362070477E-2
66 54 1.2286226103001317E-2
66 55 1.2444224051501605E-2
66 56 1.2590256867140038E-2
66 57 1.2723857899036553E-2
66 58 1.2844596927137332E-2
66 59 1.2952082469266922E-2
66 60 1.3045963895286368E-2
66 61 1.3125933332383884E-2
66 62 1.3191727347011566E-2
66 63 1.3243128390610169E-2
66 64 1.3279965998018756E-2
66 65 1.33021177293305E-2
66 66 1.330950984791183E-2
66 67 1.33021177293305E-2
66 68 1.3279965998018756E-2
66 69 1.3243128390610169E-2
66 70 1.3191727347011566E-2
66 71 1.3125933332383884E-2
66 72 1.3045963895286368E-2
66 73 1.2952082469266922E-2
66 74 1.2844596927137332E-2
66 75 1.2723857899036553E-2
66 76 1.2590256867140038E-2
66 77 1.2444224051501605E-2
66 78 1.2286226103001317E-2
66 79 1.211676362070477E-2
66 80 1.1936368512104304E-2
66 81 1.174560121570136E-2
66 82 1.1545047806193727E-2
66 83 1.1335317003146307E-2
66 84 1.1117037104445721E-2
66 85 1.0890852866066733E-2
66 86 1.0657422349712599E-2
66 87 1.0417413759735424E-2
66 88 1.0171502290401539E-2
66 89 9.920367004047512E-3
66 90 9.664687759983982E-3
66 91 9.405142213157209E-3
66 92 9.142402900584164E-3
66 93 8.87713443244969E-3
66 94 8.609990803507927E-3
66 95 8.341612839080366E-3
66 96 8.072625788505754E-3
66 97 7.803637077389106E-3
66 98 7.535234228435287E-3
66 99 7.267982959054018E-3
66 100 7.002425462304573E-3
66 101 6.739078876126403E-3
66 102 6.478433944192542E-3
66 103 6.220953870141162E-3
66 104 5.967073365401693E-3
66 105 5.717197889348822E-3
66 106 5.471703079103E-3
66 107 5.230934364960887E-3
66 108 4.995206766193312E-3
66 109 4.76480486080035E-3
66 110 4.53998292177005E-3
66 111 4.32096521145483E-3
66 112 4.107946424861764E-3
66 113 3.901092271952699E-3
66 114 3.7005401884686075E-3
66 115 3.5064001643299895E-3
66 116 3.3187556783199905E-3
66 117 3.1376647275268414E-3
66 118 2.9631609399036283E-3
66 119 2.795254758291549E-3
66 120 2.633934684342309E-3
66 121 2.4791685709596527E-3
66 122 2.330904952152349E-3
66 123 2.1890743995435897E-3
66 124 2.0535908952067335E-3
66 125 1.9243532109863046E-3
66 126 1.8012462850076334E-3
66 127 1.6841425866698377E-3
66 128 1.5729034620464647E-3
66 129 1.4673804522774983E-3
66 130 1.367416578217387E-3
66 131 1.2728475852982531E-3
66 132 1.183503143267951E-3
66 133 1.0992079961619481E-3
66 134 1.0197830585595082E-3
66 135 9.450464548521614E-4
66 136 8.748144989104668E-4
66 137 8.089026121686099E-4
66 138 7.471261787510978E-4
66 139 6.893013368380249E-4
66 140 6.352457060019391E-4
66 141 5.847790507477894E-4
66 142 5.377238809458774E-4
66 143 4.939059902648149E-4
66 144 4.531549340864822E-4
66 145 4.153044487175457E-4
66 146 3.801928140025063E-4
66 147 3.4766316169206583E-4
66 148 3.175637321289198E-4
66 149 2.8974808198221224E-4
66 150 2.64075245893548E-4
66 151 2.404098549935424E-4
66 152 2.186222153105597E-4
66 153 1.9858834912484408E-4
66 154 1.801900023241393E-4
66 155 1.6331462079362345E-4
66 156 1.478552988261544E-4
66 157 1.3371070247100844E-4
66 158 1.2078497065307907E-4
66 159 1.0898759679241744E-4
66 160 9.8233293538506E-5
66 161 8.844184310713185E-5
66 162 7.953793557242816E-5
66 163 7.145099732471724E-5
66 164 6.41150117582164E-5
66 165 5.746833410330014E-5
66 166 5.1453502167554E-5
67 1 2.282711139429899E-3
67 2 2.2926306438577613E-3
67 3 2.3124630330695482E-3
67 4 2.342194951187965E-3
67 5 2.3818060742150744E-3
67 6 2.4312687654209353E-3
67 7 2.4905476218456584E-3
67 8 2.5595989169882438E-3
67 9 2.638369945954523E-3
67 10 2.726798280489467E-3
67 11 2.824810942417164E-3
67 12 2.932323505046135E-3
67 13 3.049239133059855E-3
67 14 3.175447572294055E-3
67 15 3.310824101595694E-3
67 16 3.4552284596557612E-3
67 17 3.6085037603022026E-3
67 18 3.7704754102235376E-3
67 19 3.94095004346215E-3
67 20 4.119714487263259E-3
67 21 4.306534773986608E-3
67 22 4.501155213778969E-3
67 23 4.703297542563673E-3
67 24 4.912660159626505E-3
67 25 5.128917468664321E-3
67 26 5.351719335613966E-3
67 27 5.580690675895417E-3
67 28 5.815431182887328E-3
67 29 6.055515208508825E-3
67 30 6.30049180571359E-3
67 31 6.54988494151726E-3
67 32 6.80319388788462E-3
67 33 7.059893796407873E-3
67 34 7.267982959054018E-3
67 35 7.535234228435287E-3
67 36 7.803637077389106E-3
67 37 8.072625788505754E-3
67 38 8.341612839080366E-3
67 39 8.609990803507927E-3
67 40 8.87713443244969E-3
67 41 9.142402900584164E-3
67 42 9.405142213157209E-3
67 43 9.664687759983982E-3
67 44 9.920367004047512E-3
67 45 1.0171502290401539E-2
67 46 1.0417413759735424E-2
67 47 1.0657422349712599E-2
67 48 1.0890852866066733E-2
67 49 1.1117037104445721E-2
67 50 1.1335317003146307E-2
67 51 1.1545047806193727E-2
67 52 1.174560121570136E-2
67 53 1.1936368512104304E-2
67 54 1.211676362070477E-2
67 55 1.2286226103001317E-2
67 56 1.2444224051501605E-2
67 57 1.2590256867140038E-2
67 58 1.2723857899036553E-2
67 59 1.2844596927137332E-2
67 60 1.2952082469266922E-2
67 61 1.3045963895286368E-2
67 62 1.3125933332383884E-2
67 63 1.3191727347011566E-2
67 64 1.3243128390610169E-2
67 65 1.3279965998018756E-2
67 66 1.33021177293305E-2
67 67 1.330950984791183E-2
67 68 1.33021177293305E-2
67 69 1.3279965998018756E-2
67 70 1.3243128390610169E-2
67 71 1.3191727347011566E-2
67 72 1.3125933332383884E-2
67 73 1.3045963895286368E-2
67 74 1.2952082469266922E-2
67 75 1.2844596927137332E-2
67 76 1.2723857899036553E-2
67 77 1.2590256867140038E-2
67 78 1.2444224051501605E-2
67 79 1.2286226103001317E-2
67 80 1.211676362070477E-2
67 81 1.1936368512104304E-2
67 82 1.174560121570136E-2
67 83 1.1545047806193727E-2
67 84 1.1335317003146307E-2
67 85 1.1117037104445721E-2
67 86 1.0890852866066733E-2
67 87 1.0657422349712599E-2
67 88 1.0417413759735424E-2
67 89 1.0171502290401539E-2
67 90 9.920367004047512E-3
67 91 9.664687759983982E-3
67 92 9.405142213157209E-3
67 93 9.142402900584164E-3
67 94 8.87713443244969E-3
67 95 8.609990803507927E-3
67 96 8.341612839080366E-3
67 97 8.072625788505754E-3
67 98 7.803637077389106E-3
67 99 7.535234228435287E-3
67 100 7.267982959054018E-3
67 101 7.002425462304573E-3
67 102 6.739078876126403E-3
67 103 6.478433944192542E-3
67 104 6.220953870141162E-3
67 105 5.967073365401693E-3
67 106 5.717197889348822E-3
67 107 5.471703079103E-3
67 108 5.230934364960887E-3
67 109 4.995206766193312E-3
67 110 4.76480486080035E-3
67 111 4.53998292177005E-3
67 112 4.32096521145483E-3
67 113 4.107946424861764E-3
67 114 3.901092271952699E-3
67 115 3.7005401884686075E-3
67 116 3.5064001643299895E-3
67 117 3.3187556783199905E-3
67 118 3.1376647275268414E-3
67 119 2.9631609399036283E-3
67 120 2.795254758291549E-3
67 121 2.633934684342309E-3
67 122 2.4791685709596527E-3
67 123 2.330904952152349E-3
67 124 2.1890743995435897E-3
67 125 2.0535908952067335E-3
67 126 1.9243532109863046E-3
67 127 1.8012462850076334E-3
67 128 1.6841425866698377E-3
67 129 1.5729034620464647E-3
67 130 1.4673804522774983E-3
67 131 1.367416578217387E-3
67 132 1.2728475852982531E-3
67 133 1.183503143267951E-3
67 134 1.0992079961619481E-3
67 135 1.0197830585595082E-3
67 136 9.450464548521614E-4
67 137 8.748144989104668E-4
67 138 8.089026121686099E-4
67 139 7.471261787510978E-4
67 140 6.893013368380249E-4
67 141 6.352457060019391E-4
67 142 5.847790507477894E-4
67 143 5.377238809458774E-4
67 144 4.939059902648149E-4
67 145 4.531549340864822E-4
67 146 4.153044487175457E-4
67 147 3.801928140025063E-4
67 148 3.4766316169206583E-4
67 149 3.175637321289198E-4
67 150 2.8974808198221224E-4
67 151 2.64075245893548E-4
67 152 2.404098549935424E-4
67 153 2.186222153105597E-4
67 154 1.9858834912484408E-4
67 155 1.801900023241393E-4
67 156 1.6331462079362345E-4
67 157 1.478552988261544E-4
67 158 1.3371070247100844E-4
67 159 1.2078497065307907E-4
67 160 1.0898759679241744E-4
67 161 9.8233293538506E-5
67 162 8.844184310713185E-5
67 163 7.953793557242816E-5
67 164 7.145099732471724E-5
67 165 6.41150117582164E-5
67 166 5.746833410330014E-5
67 167 5.1453502167554E-5
68 1 2.1189910547214563E-3
68 2 2.1285495981201124E-3
68 3 2.1476620842087197E-3
68 4 2.176319190385997E-3
68 5 2.2145066310285963E-3
68 6 2.2622047988844897E-3
68 7 2.319388292671777E-3
68 8 2.386025335755423E-3
68 9 2.462077091932182E-3
68 10 2.5474968854715483E-3
68 11 2.6422293336300718E-3
68 12 2.746209400869895E-3
68 13 2.859361384962159E-3
68 14 2.981597846034375E-3
68 15 3.112818490420469E-3
68 16 3.2529090218858404E-3
68 17 3.4017399734203894E-3
68 18 3.559165533313533E-3
68 19 3.725022379640549E-3
68 20 3.8991285375934515E-3
68 21 4.0812822742768385E-3
68 22 4.271261045655388E-3
68 23 4.468820510280984E-3
68 24 4.673693624241058E-3
68 25 4.88558983145343E-3
68 26 5.104194362985729E-3
68 27 5.329167658499392E-3
68 28 5.5601449222101315E-3
68 29 5.79673582492125E-3
68 30 6.0385243627264105E-3
68 31 6.285068881899379E-3
68 32 6.535902278295843E-3
68 33 6.739078876126403E-3
68 34 7.002425462304573E-3
68 35 7.267982959054018E-3
68 36 7.535234228435287E-3
68 37 7.803637077389106E-3
68 38 8.072625788505754E-3
68 39 8.341612839080366E-3
68 40 8.609990803507927E-3
68 41 8.87713443244969E-3
68 42 9.142402900584164E-3
68 43 9.405142213157209E-3
68 44 9.664687759983982E-3
68 45 9.920367004047512E-3
68 46 1.0171502290401539E-2
68 47 1.0417413759735424E-2
68 48 1.0657422349712599E-2
68 49 1.0890852866066733E-2
68 50 1.1117037104445721E-2
68 51 1.1335317003146307E-2
68 52 1.1545047806193727E-2
68 53 1.174560121570136E-2
68 54 1.1936368512104304E-2
68 55 1.211676362070477E-2
68 56 1.2286226103001317E-2
68 57 1.2444224051501605E-2
68 58 1.2590256867140038E-2
68 59 1.2723857899036553E-2
68 60 1.2844596927137332E-2
68 61 1.2952082469266922E-2
68 62 1.3045963895286368E-2
68 63 1.3125933332383884E-2
68 64 1.3191727347011566E-2
68 65 1.3243128390610169E-2
68 66 1.3279965998018756E-2
68 67 1.33021177293305E-2
68 68 1.330950984791183E-2
68 69 1.33021177293305E-2
68 70 1.3279965998018756E-2
68 71 1.3243128390610169E-2
68 72 1.3191727347011566E-2
68 73 1.3125933332383884E-2
68 74 1.3045963895286368E-2
68 75 1.2952082469266922E-2
68 76 1.2844596927137332E-2
68 77 1.2723857899036553E-2
68 78 1.2590256867140038E-2
68 79 1.2444224051501605E-2
68 80 1.2286226103001317E-2
68 81 1.211676362070477E-2
68 82 1.1936368512104304E-2
68 83 1.174560121570136E-2
68 84 1.1545047806193727E-2
68 85 1.1335317003146307E-2
68 86 1.1117037104445721E-2
68 87 1.0890852866066733E-2
68 88 1.0657422349712599E-2
68 89 1.0417413759735424E-2
68 90 1.0171502290401539E-2
68 91 9.920367004047512E-3
68 92 9.664687759983982E-3
68 93 9.405142213157209E-3
68 94 9.142402900584164E-3
68 95 8.87713443244969E-3
68 96 8.609990803507927E-3
68 97 8.341612839080366E-3
68 98 8.072625788505754E-3
68 99 7.803637077389106E-3
68 100 7.535234228435287E-3
68 101 7.267982959054018E-3
68 102 7.002425462304573E-3
68 103 6.739078876126403E-3
68 104 6.478433944192542E-3
68 105 6.220953870141162E-3
68 106 5.967073365401693E-3
68 107 5.717197889348822E-3
68 108 5.471703079103E-3
68 109 5.230934364960887E-3
68 110 4.995206766193312E-3
68 111 4.76480486080035E-3
68 112 4.53998292177005E-3
68 113 4.32096521145483E-3
68 114 4.107946424861764E-3
68 115 3.901092271952699E-3
68 116 3.7005401884686075E-3
68 117 3.5064001643299895E-3
68 118 3.3187556783199905E-3
68 119 3.1376647275268414E-3
68 120 2.9631609399036283E-3
68 121 2.795254758291549E-3
68 122 2.633934684342309E-3
68 123 2.4791685709596527E-3
68 124 2.330904952152349E-3
68 125 2.1890743995435897E-3
68 126 2.0535908952067335E-3
68 127 1.9243532109863046E-3
68 128 1.8012462850076334E-3
68 129 1.6841425866698377E-3
68 130 1.5729034620464647E-3
68 131 1.4673804522774983E-3
68 132 1.367416578217387E-3
68 133 1.2728475852982531E-3
68 134 1.183503143267951E-3
68 135 1.0992079961619481E-3
68 136 1.0197830585595082E-3
68 137 9.450464548521614E-4
68 138 8.748144989104668E-4
68 139 8.089026121686099E-4
68 140 7.471261787510978E-4
68 141 6.893013368380249E-4
68 142 6.352457060019391E-4
68 143 5.847790507477894E-4
68 144 5.377238809458774E-4
68 145 4.939059902648149E-4
68 146 4.531549340864822E-4
68 147 4.153044487175457E-4
68 148 3.801928140025063E-4
68 149 3.4766316169206583E-4
68 150 3.175637321289198E-4
68 151 2.8974808198221224E-4
68 152 2.64075245893548E-4
68 153 2.404098549935424E-4
68 154 2.186222153105597E-4
68 155 1.9858834912484408E-4
68 156 1.801900023241393E-4
68 157 1.6331462079362345E-4
68 158 1.478552988261544E-4
68 159 1.3371070247100844E-4
68 160 1.2078497065307907E-4
68 161 1.0898759679241744E-4
68 162 9.8233293538506E-5
68 163 8.844184310713185E-5
68 164 7.953793557242816E-5
68 165 7.145099732471724E-5
68 166 6.41150117582164E-5
68 167 5.746833410330014E-5
68 168 5.1453502167554E-5
69 1 1.9648295134116695E-3
69 2 1.974022495072415E-3
69 3 1.9924057554365606E-3
69 4 2.019973764049351E-3
69 5 2.056717915055412E-3
69 6 2.1026261582794375E-3
69 7 2.1576825127942543E-3
69 8 2.221866467615715E-3
69 9 2.2951522752724485E-3
69 10 2.3775081450727866E-3
69 11 2.4688953439242793E-3
69 12 2.569267213546096E-3
69 13 2.678568113844415E-3
69 14 2.7967323030885726E-3
69 15 2.923682766324521E-3
69 16 3.059330004185097E-3
69 17 3.203570794897171E-3
69 18 3.356286942837401E-3
69 19 3.5173440274448345E-3
69 20 3.686590166654129E-3
69 21 3.863854809262231E-3
69 22 4.048947570778854E-3
69 23 4.241657127332772E-3
69 24 4.441750182107909E-3
69 25 4.648970518562467E-3
69 26 4.863038154338856E-3
69 27 5.083648609300444E-3
69 28 5.3104723005333145E-3
69 29 5.543154076427717E-3
69 30 5.781312901107039E-3
69 31 6.0245416995049934E-3
69 32 6.220953870141162E-3
69 33 6.478433944192542E-3
69 34 6.739078876126403E-3
69 35 7.002425462304573E-3
69 36 7.267982959054018E-3
69 37 7.535234228435287E-3
69 38 7.803637077389106E-3
69 39 8.072625788505754E-3
69 40 8.341612839080366E-3
69 41 8.609990803507927E-3
69 42 8.87713443244969E-3
69 43 9.142402900584164E-3
69 44 9.405142213157209E-3
69 45 9.664687759983982E-3
69 46 9.920367004047512E-3
69 47 1.0171502290401539E-2
69 48 1.0417413759735424E-2
69 49 1.0657422349712599E-2
69 50 1.0890852866066733E-2
69 51 1.1117037104445721E-2
69 52 1.1335317003146307E-2
69 53 1.1545047806193727E-2
69 54 1.174560121570136E-2
69 55 1.1936368512104304E-2
69 56 1.211676362070477E-2
69 57 1.2286226103001317E-2
69 58 1.2444224051501605E-2
69 59 1.2590256867140038E-2
69 60 1.2723857899036553E-2
69 61 1.2844596927137332E-2
69 62 1.2952082469266922E-2
69 63 1.3045963895286368E-2
69 64 1.3125933332383884E-2
69 65 1.3191727347011566E-2
69 66 1.3243128390610169E-2
69 67 1.3279965998018756E-2
69 68 1.33021177293305E-2
69 69 1.330950984791183E-2
69 70 1.33021177293305E-2
69 71 1.3279965998018756E-2
69 72 1.3243128390610169E-2
69 73 1.3191727347011566E-2
69 74 1.3125933332383884E-2
69 75 1.3045963895286368E-2
69 76 1.2952082469266922E-2
69 77 1.2844596927137332E-2
69 78 1.2723857899036553E-2
69 79 1.2590256867140038E-2
69 80 1.2444224051501605E-2
69 81 1.2286226103001317E-2
69 82 1.211676362070477E-2
69 83 1.1936368512104304E-2
69 84 1.174560121570136E-2
69 85 1.1545047806193727E-2
69 86 1.1335317003146307E-2
69 87 1.1117037104445721E-2
69 88 1.0890852866066733E-2
69 89 1.0657422349712599E-2
69 90 1.0417413759735424E-2
69 91 1.0171502290401539E-2
69 92 9.920367004047512E-3
69 93 9.664687759983982E-3
69 94 9.405142213157209E-3
69 95 9.142402900584164E-3
69 96 8.87713443244969E-3
69 97 8.609990803507927E-3
69 98 8.341612839080366E-3
69 99 8.072625788505754E-3
69 100 7.803637077389106E-3
69 101 7.535234228435287E-3
69 102 7.267982959054018E-3
69 103 7.002425462304573E-3
69 104 6.739078876126403E-3
69 105 6.478433944192542E-3
69 106 6.220953870141162E-3
69 107 5.967073365401693E-3
69 108 5.717197889348822E-3
69 109 5.471703079103E-3
69 110 5.230934364960887E-3
69 111 4.995206766193312E-3
69 112 4.76480486080035E-3
69 113 4.53998292177005E-3
69 114 4.32096521145483E-3
69 115 4.107946424861764E-3
69 116 3.901092271952699E-3
69 117 3.7005401884686075E-3
69 118 3.5064001643299895E-3
69 119 3.3187556783199905E-3
69 120 3.1376647275268414E-3
69 121 2.9631609399036283E-3
69 122 2.795254758291549E-3
69 123 2.633934684342309E-3
69 124 2.4791685709596527E-3
69 125 2.330904952152349E-3
69 126 2.1890743995435897E-3
69 127 2.0535908952067335E-3
69 128 1.9243532109863046E-3
69 129 1.8012462850076334E-3
69 130 1.6841425866698377E-3
69 131 1.5729034620464647E-3
69 132 1.4673804522774983E-3
69 133 1.367416578217387E-3
69 134 1.2728475852982531E-3
69 135 1.183503143267951E-3
69 136 1.0992079961619481E-3
69 137 1.0197830585595082E-3
69 138 9.450464548521614E-4
69 139 8.748144989104668E-4
69 140 8.089026121686099E-4
69 141 7.471261787510978E-4
69 142 6.893013368380249E-4
69 143 6.352457060019391E-4
69 144 5.847790507477894E-4
69 145 5.377238809458774E-4
69 146 4.939059902648149E-4
69 147 4.531549340864822E-4
69 148 4.153044487175457E-4
69 149 3.801928140025063E-4
69 150 3.4766316169206583E-4
69 151 3.175637321289198E-4
69 152 2.8974808198221224E-4
69 153 2.64075245893548E-4
69 154 2.404098549935424E-4
69 155 2.186222153105597E-4
69 156 1.9858834912484408E-4
69 157 1.801900023241393E-4
69 158 1.6331462079362345E-4
69 159 1.478552988261544E-4
69 160 1.3371070247100844E-4
69 161 1.2078497065307907E-4
69 162 1.0898759679241744E-4
69 163 9.8233293538506E-5
69 164 8.844184310713185E-5
69 165 7.953793557242816E-5
69 166 7.145099732471724E-5
69 167 6.41150117582164E-5
69 168 5.746833410330014E-5
69 169 5.1453502167554E-5
70 1 1.8198609537626283E-3
70 2 1.828685670728118E-3
70 3 1.846334174913046E-3
70 4 1.8728044801059759E-3
70 5 1.9080932913001923E-3
70 6 1.9521956289651763E-3
70 7 2.0051043332233757E-3
70 8 2.0668094523112798E-3
70 9 2.13729752075632E-3
70 10 2.216550733725179E-3
70 11 2.3045460249888107E-3
70 12 2.4012540568987993E-3
70 13 2.5066381316725095E-3
70 14 2.620653034134561E-3
70 15 2.7432438168532008E-3
70 16 2.8743445393358516E-3
70 17 3.0138769736021086E-3
70 18 3.1617492890284723E-3
70 19 3.3178547298509807E-3
70 20 3.482070299113614E-3
70 21 3.654255463156144E-3
70 22 3.834250890939616E-3
70 23 4.0218772426057784E-3
70 24 4.216934021654181E-3
70 25 4.419198504993335E-3
70 26 4.6284247648771815E-3
70 27 4.844342796372778E-3
70 28 5.06665776351803E-3
70 29 5.295049376719103E-3
70 30 5.5291714132063E-3
70 31 5.717197889348822E-3
70 32 5.967073365401693E-3
70 33 6.220953870141162E-3
70 34 6.478433944192542E-3
70 35 6.739078876126403E-3
70 36 7.002425462304573E-3
70 37 7.267982959054018E-3
70 38 7.535234228435287E-3
70 39 7.803637077389106E-3
70 40 8.072625788505754E-3
70 41 8.341612839080366E-3
70 42 8.609990803507927E-3
70 43 8.87713443244969E-3
70 44 9.142402900584164E-3
70 45 9.405142213157209E-3
70 46 9.664687759983982E-3
70 47 9.920367004047512E-3
70 48 1.0171502290401539E-2
70 49 1.0417413759735424E-2
70 50 1.0657422349712599E-2
70 51 1.0890852866066733E-2
70 52 1.1117037104445721E-2
70 53 1.1335317003146307E-2
70 54 1.1545047806193727E-2
70 55 1.174560121570136E-2
70 56 1.1936368512104304E-2
70 57 1.211676362070477E-2
70 58 1.2286226103001317E-2
70 59 1.2444224051501605E-2
70 60 1.2590256867140038E-2
70 61 1.2723857899036553E-2
70 62 1.2844596927137332E-2
70 63 1.2952082469266922E-2
70 64 1.3045963895286368E-2
70 65 1.3125933332383884E-2
70 66 1.3191727347011566E-2
70 67 1.3243128390610169E-2
70 68 1.3279965998018756E-2
70 69 1.33021177293305E-2
70 70 1.330950984791183E-2
70 71 1.33021177293305E-2
70 72 1.3279965998018756E-2
70 73 1.3243128390610169E-2
70 74 1.3191727347011566E-2
70 75 1.3125933332383884E-2
70 76 1.3045963895286368E-2
70 77 1.2952082469266922E-2
70 78 1.2844596927137332E-2
70 79 1.2723857899036553E-2
70 80 1.2590256867140038E-2
70 81 1.2444224051501605E-2
70 82 1.2286226103001317E-2
70 83 1.211676362070477E-2
70 84 1.1936368512104304E-2
70 85 1.174560121570136E-2
70 86 1.1545047806193727E-2
70 87 1.1335317003146307E-2
70 88 1.1117037104445721E-2
70 89 1.0890852866066733E-2
70 90 1.0657422349712599E-2
70 91 1.0417413759735424E-2
70 92 1.0171502290401539E-2
70 93 9.920367004047512E-3
70 94 9.664687759983982E-3
70 95 9.405142213157209E-3
70 96 9.142402900584164E-3
70 97 8.87713443244969E-3
70 98 8.609990803507927E-3
70 99 8.341612839080366E-3
70 100 8.072625788505754E-3
70 101 7.803637077389106E-3
70 102 7.535234228435287E-3
70 103 7.267982959054018E-3
70 104 7.002425462304573E-3
70 105 6.739078876126403E-3
70 106 6.478433944192542E-3
70 107 6.220953870141162E-3
70 108 5.967073365401693E-3
70 109 5.717197889348822E-3
70 110 5.471703079103E-3
70 111 5.230934364960887E-3
70 112 4.995206766193312E-3
70 113 4.76480486080035E-3
70 114 4.53998292177005E-3
70 115 4.32096521145483E-3
70 116 4.107946424861764E-3
70 117 3.901092271952699E-3
70 118 3.7005401884686075E-3
70 119 3.5064001643299895E-3
70 120 3.3187556783199905E-3
70 121 3.1376647275268414E-3
70 122 2.9631609399036283E-3
70 123 2.795254758291549E-3
70 124 2.633934684342309E-3
70 125 2.4791685709596527E-3
70 126 2.330904952152349E-3
70 127 2.1890743995435897E-3
70 128 2.0535908952067335E-3
70 129 1.9243532109863046E-3
70 130 1.8012462850076334E-3
70 131 1.6841425866698377E-3
70 132 1.5729034620464647E-3
70 133 1.4673804522774983E-3
70 134 1.367416578217387E-3
70 135 1.2728475852982531E-3
70 136 1.183503143267951E-3
70 137 1.0992079961619481E-3
70 138 1.0197830585595082E-3
70 139 9.450464548521614E-4
70 140 8.748144989104668E-4
70 141 8.089026121686099E-4
70 142 7.471261787510978E-4
70 143 6.893013368380249E-4
70 144 6.352457060019391E-4
70 145 5.847790507477894E-4
70 146 5.377238809458774E-4
70 147 4.939059902648149E-4
70 148 4.531549340864822E-4
70 149 4.153044487175457E-4
70 150 3.801928140025063E-4
70 151 3.4766316169206583E-4
70 152 3.175637321289198E-4
70 153 2.8974808198221224E-4
70 154 2.64075245893548E-4
70 155 2.404098549935424E-4
70 156 2.186222153105597E-4
70 157 1.9858834912484408E-4
70 158 1.801900023241393E-4
70 159 1.6331462079362345E-4
70 160 1.478552988261544E-4
70 161 1.3371070247100844E-4
70 162 1.2078497065307907E-4
70 163 1.0898759679241744E-4
70 164 9.8233293538506E-5
70 165 8.844184310713185E-5
70 166 7.953793557242816E-5
70 167 7.145099732471724E-5
70 168 6.41150117582164E-5
70 169 5.746833410330014E-5
70 170 5.1453502167554E-5
71 1 1.6837171110790766E-3
71 2 1.6921726336032593E-3
71 3 1.7090843953975331E-3
71 4 1.7344537021638873E-3
71 5 1.7682821940157405E-3
71 6 1.8105714662441305E-3
71 7 1.8613225684822017E-3
71 8 1.9205353863639804E-3
71 9 1.9882079107640103E-3
71 10 2.064335400672344E-3
71 11 2.1489094466996994E-3
71 12 2.2419169431152244E-3
71 13 2.3433389771889456E-3
71 14 2.4531496454371377E-3
71 15 2.5713148071458917E-3
71 16 2.6977907862702124E-3
71 17 2.832523033467153E-3
71 18 2.9754447606156883E-3
71 19 3.1264755606972517E-3
71 20 3.285520026352996E-3
71 21 3.452466380790999E-3
71 22 3.6271851349830688E-3
71 23 3.809527785261025E-3
71 24 3.999325565491205E-3
71 25 4.196388267968896E-3
71 26 4.400503147027258E-3
71 27 4.611433919094767E-3
71 28 4.828919872558567E-3
71 29 5.0526751002966126E-3
71 30 5.230934364960887E-3
71 31 5.471703079103E-3
71 32 5.717197889348822E-3
71 33 5.967073365401693E-3
71 34 6.220953870141162E-3
71 35 6.478433944192542E-3
71 36 6.739078876126403E-3
71 37 7.002425462304573E-3
71 38 7.267982959054018E-3
71 39 7.535234228435287E-3
71 40 7.803637077389106E-3
71 41 8.072625788505754E-3
71 42 8.341612839080366E-3
71 43 8.609990803507927E-3
71 44 8.87713443244969E-3
71 45 9.142402900584164E-3
71 46 9.405142213157209E-3
71 47 9.664687759983982E-3
71 48 9.920367004047512E-3
71 49 1.0171502290401539E-2
71 50 1.0417413759735424E-2
71 51 1.0657422349712599E-2
71 52 1.0890852866066733E-2
71 53 1.1117037104445721E-2
71 54 1.1335317003146307E-2
71 55 1.1545047806193727E-2
71 56 1.174560121570136E-2
71 57 1.1936368512104304E-2
71 58 1.211676362070477E-2
71 59 1.2286226103001317E-2
71 60 1.2444224051501605E-2
71 61 1.2590256867140038E-2
71 62 1.2723857899036553E-2
71 63 1.2844596927137332E-2
71 64 1.2952082469266922E-2
71 65 1.3045963895286368E-2
71 66 1.3125933332383884E-2
71 67 1.3191727347011566E-2
71 68 1.3243128390610169E-2
71 69 1.3279965998018756E-2
71 70 1.33021177293305E-2
71 71 1.330950984791183E-2
71 72 1.33021177293305E-2
71 73 1.3279965998018756E-2
71 74 1.3243128390610169E-2
71 75 1.3191727347011566E-2
71 76 1.3125933332383884E-2
71 77 1.3045963895286368E-2
71 78 1.2952082469266922E-2
71 79 1.2844596927137332E-2
71 80 1.2723857899036553E-2
71 81 1.2590256867140038E-2
71 82 1.2444224051501605E-2
71 83 1.2286226103001317E-2
71 84 1.211676362070477E-2
71 85 1.1936368512104304E-2
71 86 1.174560121570136E-2
71 87 1.1545047806193727E-2
71 88 1.1335317003146307E-2
71 89 1.1117037104445721E-2
71 90 1.0890852866066733E-2
71 91 1.0657422349712599E-2
71 92 1.0417413759735424E-2
71 93 1.0171502290401539E-2
71 94 9.920367004047512E-3
71 95 9.664687759983982E-3
71 96 9.405142213157209E-3
71 97 9.142402900584164E-3
71 98 8.87713443244969E-3
71 99 8.609990803507927E-3
71 100 8.341612839080366E-3
71 101 8.072625788505754E-3
71 102 7.803637077389106E-3
71 103 7.535234228435287E-3
71 104 7.267982959054018E-3
71 105 7.002425462304573E-3
71 106 6.739078876126403E-3
71 107 6.478433944192542E-3
71 108 6.220953870141162E-3
71 109 5.967073365401693E-3
71 110 5.717197889348822E-3
71 111 5.471703079103E-3
71 112 5.230934364960887E-3
71 113 4.995206766193312E-3
71 114 4.76480486080035E-3
71 115 4.53998292177005E-3
71 116 4.32096521145483E-3
71 117 4.107946424861764E-3
71 118 3.901092271952699E-3
71 119 3.7005401884686075E-3
71 120 3.5064001643299895E-3
71 121 3.3187556783199905E-3
71 122 3.1376647275268414E-3
71 123 2.9631609399036283E-3
71 124 2.795254758291549E-3
71 125 2.633934684342309E-3
71 126 2.4791685709596527E-3
71 127 2.330904952152349E-3
71 128 2.1890743995435897E-3
71 129 2.0535908952067335E-3
71 130 1.9243532109863046E-3
71 131 1.8012462850076334E-3
71 132 1.6841425866698377E-3
71 133 1.5729034620464647E-3
71 134 1.4673804522774983E-3
71 135 1.367416578217387E-3
71 136 1.2728475852982531E-3
71 137 1.183503143267951E-3
71 138 1.0992079961619481E-3
71 139 1.0197830585595082E-3
71 140 9.450464548521614E-4
71 141 8.748144989104668E-4
71 142 8.089026121686099E-4
71 143 7.471261787510978E-4
71 144 6.893013368380249E-4
71 145 6.352457060019391E-4
71 146 5.847790507477894E-4
71 147 5.377238809458774E-4
71 148 4.939059902648149E-4
71 149 4.531549340864822E-4
71 150 4.153044487175457E-4
71 151 3.801928140025063E-4
71 152 3.4766316169206583E-4
71 153 3.175637321289198E-4
71 154 2.8974808198221224E-4
71 155 2.64075245893548E-4
71 156 2.404098549935424E-4
71 157 2.186222153105597E-4
71 158 1.9858834912484408E-4
71 159 1.801900023241393E-4
71 160 1.6331462079362345E-4
71 161 1.478552988261544E-4
71 162 1.3371070247100844E-4
71 163 1.2078497065307907E-4
71 164 1.0898759679241744E-4
71 165 9.8233293538506E-5
71 166 8.844184310713185E-5
71 167 7.953793557242816E-5
71 168 7.145099732471724E-5
71 169 6.41150117582164E-5
71 170 5.746833410330014E-5
71 171 5.1453502167554E-5
72 1 1.5560287909197076E-3
72 2 1.5641158357484917E-3
72 3 1.5802921608541005E-3
72 4 1.6045621093072975E-3
72 5 1.6369318771078255E-3
72 6 1.677409133532766E-3
72 7 1.7260025193847352E-3
72 8 1.7827210269349327E-3
72 9 1.8475732662800047E-3
72 10 1.9205666237385305E-3
72 11 2.0017063187987576E-3
72 12 2.0909943669898457E-3
72 13 2.1884284568798526E-3
72 14 2.294000750200276E-3
72 15 2.4076966148541493E-3
72 16 2.529493301277193E-3
72 17 2.659358573283792E-3
72 18 2.7972493051359325E-3
72 19 2.9431100571177034E-3
72 20 3.0968716423746367E-3
72 21 3.2584496981799206E-3
72 22 3.427743275112408E-3
72 23 3.6046334578684956E-3
72 24 3.788982031575739E-3
72 25 3.980630207525127E-3
72 26 4.179397422186482E-3
72 27 4.3850802232130465E-3
72 28 4.59745125587335E-3
72 29 4.76480486080035E-3
72 30 4.995206766193312E-3
72 31 5.230934364960887E-3
72 32 5.471703079103E-3
72 33 5.717197889348822E-3
72 34 5.967073365401693E-3
72 35 6.220953870141162E-3
72 36 6.478433944192542E-3
72 37 6.739078876126403E-3
72 38 7.002425462304573E-3
72 39 7.267982959054018E-3
72 40 7.535234228435287E-3
72 41 7.803637077389106E-3
72 42 8.072625788505754E-3
72 43 8.341612839080366E-3
72 44 8.609990803507927E-3
72 45 8.87713443244969E-3
72 46 9.142402900584164E-3
72 47 9.405142213157209E-3
72 48 9.664687759983982E-3
72 49 9.920367004047512E-3
72 50 1.0171502290401539E-2
72 51 1.0417413759735424E-2
72 52 1.0657422349712599E-2
72 53 1.0890852866066733E-2
72 54 1.1117037104445721E-2
72 55 1.1335317003146307E-2
72 56 1.1545047806193727E-2
72 57 1.174560121570136E-2
72 58 1.1936368512104304E-2
72 59 1.211676362070477E-2
72 60 1.2286226103001317E-2
72 61 1.2444224051501605E-2
72 62 1.2590256867140038E-2
72 63 1.2723857899036553E-2
72 64 1.2844596927137332E-2
72 65 1.2952082469266922E-2
72 66 1.3045963895286368E-2
72 67 1.3125933332383884E-2
72 68 1.3191727347011566E-2
72 69 1.3243128390610169E-2
72 70 1.3279965998018756E-2
72 71 1.33021177293305E-2
72 72 1.330950984791183E-2
72 73 1.33021177293305E-2
72 74 1.3279965998018756E-2
72 75 1.3243128390610169E-2
72 76 1.3191727347011566E-2
72 77 1.3125933332383884E-2
72 78 1.3045963895286368E-2
72 79 1.2952082469266922E-2
72 80 1.2844596927137332E-2
72 81 1.2723857899036553E-2
72 82 1.2590256867140038E-2
72 83 1.2444224051501605E-2
72 84 1.2286226103001317E-2
72 85 1.211676362070477E-2
72 86 1.1936368512104304E-2
72 87 1.174560121570136E-2
72 88 1.1545047806193727E-2
72 89 1.1335317003146307E-2
72 90 1.1117037104445721E-2
72 91 1.0890852866066733E-2
72 92 1.0657422349712599E-2
72 93 1.0417413759735424E-2
72 94 1.0171502290401539E-2
72 95 9.920367004047512E-3
72 96 9.664687759983982E-3
72 97 9.405142213157209E-3
72 98 9.142402900584164E-3
72 99 8.87713443244969E-3
72 100 8.609990803507927E-3
72 101 8.341612839080366E-3
72 102 8.072625788505754E-3
72 103 7.803637077389106E-3
72 104 7.535234228435287E-3
72 105 7.267982959054018E-3
72 106 7.002425462304573E-3
72 107 6.739078876126403E-3
72 108 6.478433944192542E-3
72 109 6.220953870141162E-3
72 110 5.967073365401693E-3
72 111 5.717197889348822E-3
72 112 5.471703079103E-3
72 113 5.230934364960887E-3
72 114 4.995206766193312E-3
72 115 4.76480486080035E-3
72 116 4.53998292177005E-3
72 117 4.32096521145483E-3
72 118 4.107946424861764E-3
72 119 3.901092271952699E-3
72 120 3.7005401884686075E-3
72 121 3.5064001643299895E-3
72 122 3.3187556783199905E-3
72 123 3.1376647275268414E-3
72 124 2.9631609399036283E-3
72 125 2.795254758291549E-3
72 126 2.633934684342309E-3
72 127 2.4791685709596527E-3
72 128 2.330904952152349E-3
72 129 2.1890743995435897E-3
72 130 2.0535908952067335E-3
72 131 1.9243532109863046E-3
72 132 1.8012462850076334E-3
72 133 1.6841425866698377E-3
72 134 1.5729034620464647E-3
72 135 1.4673804522774983E-3
72 136 1.367416578217387E-3
72 137 1.2728475852982531E-3
72 138 1.183503143267951E-3
72 139 1.0992079961619481E-3
72 140 1.0197830585595082E-3
72 141 9.450464548521614E-4
72 142 8.748144989104668E-4
72 143 8.089026121686099E-4
72 144 7.471261787510978E-4
72 145 6.893013368380249E-4
72 146 6.352457060019391E-4
72 147 5.847790507477894E-4
72 148 5.377238809458774E-4
72 149 4.939059902648149E-4
72 150 4.531549340864822E-4
72 151 4.153044487175457E-4
72 152 3.801928140025063E-4
72 153 3.4766316169206583E-4
72 154 3.175637321289198E-4
72 155 2.8974808198221224E-4
72 156 2.64075245893548E-4
72 157 2.404098549935424E-4
72 158 2.186222153105597E-4
72 159 1.9858834912484408E-4
72 160 1.801900023241393E-4
72 161 1.6331462079362345E-4
72 162 1.478552988261544E-4
72 163 1.3371070247100844E-4
72 164 1.2078497065307907E-4
72 165 1.0898759679241744E-4
72 166 9.8233293538506E-5
72 167 8.844184310713185E-5
72 168 7.953793557242816E-5
72 169 7.145099732471724E-5
72 170 6.41150117582164E-5
72 171 5.746833410330014E-5
72 172 5.1453502167554E-5
73 1 1.4364275155891227E-3
73 2 1.444148318170549E-3
73 3 1.4595935496582563E-3
73 4 1.4827703357980387E-3
73 5 1.513689048824323E-3
73 6 1.5523629302484302E-3
73 7 1.5988075919854967E-3
73 8 1.6530403993007595E-3
73 9 1.7150797399094527E-3
73 10 1.7849441844064182E-3
73 11 1.862651544028677E-3
73 12 1.9482178325633858E-3
73 13 2.0416561400011758E-3
73 14 2.142975426296864E-3
73 15 2.2521792443315775E-3
73 16 2.369264401867729E-3
73 17 2.4942195729459726E-3
73 18 2.627023869785807E-3
73 19 2.7676453868133175E-3
73 20 2.9160397289446282E-3
73 21 3.072148536696046E-3
73 22 3.2358980210653475E-3
73 23 3.4071975214271222E-3
73 24 3.585938099902418E-3
73 25 3.771991185793325E-3
73 26 3.965207283710916E-3
73 27 4.1654147589650645E-3
73 28 4.32096521145483E-3
73 29 4.53998292177005E-3
73 30 4.76480486080035E-3
73 31 4.995206766193312E-3
73 32 5.230934364960887E-3
73 33 5.471703079103E-3
73 34 5.717197889348822E-3
73 35 5.967073365401693E-3
73 36 6.220953870141162E-3
73 37 6.478433944192542E-3
73 38 6.739078876126403E-3
73 39 7.002425462304573E-3
73 40 7.267982959054018E-3
73 41 7.535234228435287E-3
73 42 7.803637077389106E-3
73 43 8.072625788505754E-3
73 44 8.341612839080366E-3
73 45 8.609990803507927E-3
73 46 8.87713443244969E-3
73 47 9.142402900584164E-3
73 48 9.405142213157209E-3
73 49 9.664687759983982E-3
73 50 9.920367004047512E-3
73 51 1.0171502290401539E-2
73 52 1.0417413759735424E-2
73 53 1.0657422349712599E-2
73 54 1.0890852866066733E-2
73 55 1.1117037104445721E-2
73 56 1.1335317003146307E-2
73 57 1.1545047806193727E-2
73 58 1.174560121570136E-2
73 59 1.1936368512104304E-2
73 60 1.211676362070477E-2
73 61 1.2286226103001317E-2
73 62 1.2444224051501605E-2
73 63 1.2590256867140038E-2
73 64 1.2723857899036553E-2
73 65 1.2844596927137332E-2
73 66 1.2952082469266922E-2
73 67 1.3045963895286368E-2
73 68 1.3125933332383884E-2
73 69 1.3191727347011566E-2
73 70 1.3243128390610169E-2
73 71 1.3279965998018756E-2
73 72 1.33021177293305E-2
73 73 1.330950984791183E-2
73 74 1.33021177293305E-2
73 75 1.3279965998018756E-2
73 76 1.3243128390610169E-2
73 77 1.3191727347011566E-2
73 78 1.3125933332383884E-2
73 79 1.3045963895286368E-2
73 80 1.2952082469266922E-2
73 81 1.2844596927137332E-2
73 82 1.2723857899036553E-2
73 83 1.2590256867140038E-2
73 84 1.2444224051501605E-2
73 85 1.2286226103001317E-2
73 86 1.211676362070477E-2
73 87 1.1936368512104304E-2
73 88 1.174560121570136E-2
73 89 1.1545047806193727E-2
73 90 1.1335317003146307E-2
73 91 1.1117037104445721E-2
73 92 1.0890852866066733E-2
73 93 1.0657422349712599E-2
73 94 1.0417413759735424E-2
73 95 1.0171502290401539E-2
73 96 9.920367004047512E-3
73 97 9.664687759983982E-3
73 98 9.405142213157209E-3
73 99 9.142402900584164E-3
73 100 8.87713443244969E-3
73 101 8.609990803507927E-3
73 102 8.341612839080366E-3
73 103 8.072625788505754E-3
73 104 7.803637077389106E-3
73 105 7.535234228435287E-3
73 106 7.267982959054018E-3
73 107 7.002425462304573E-3
73 108 6.739078876126403E-3
73 109 6.478433944192542E-3
73 110 6.220953870141162E-3
73 111 5.967073365401693E-3
73 112 5.717197889348822E-3
73 113 5.471703079103E-3
73 114 5.230934364960887E-3
73 115 4.995206766193312E-3
73 116 4.76480486080035E-3
73 117 4.53998292177005E-3
73 118 4.32096521145483E-3
73 119 4.107946424861764E-3
73 120 3.901092271952699E-3
73 121 3.7005401884686075E-3
73 122 3.5064001643299895E-3
73 123 3.3187556783199905E-3
73 124 3.1376647275268414E-3
73 125 2.9631609399036283E-3
73 126 2.795254758291549E-3
73 127 2.633934684342309E-3
73 128 2.4791685709596527E-3
73 129 2.330904952152349E-3
73 130 2.1890743995435897E-3
73 131 2.0535908952067335E-3
73 132 1.9243532109863046E-3
73 133 1.8012462850076334E-3
73 134 1.6841425866698377E-3
73 135 1.5729034620464647E-3
73 136 1.4673804522774983E-3
73 137 1.367416578217387E-3
73 138 1.2728475852982531E-3
73 139 1.183503143267951E-3
73 140 1.0992079961619481E-3
73 141 1.0197830585595082E-3
73 142 9.450464548521614E-4
73 143 8.748144989104668E-4
73 144 8.089026121686099E-4
73 145 7.471261787510978E-4
73 146 6.893013368380249E-4
73 147 6.352457060019391E-4
73 148 5.847790507477894E-4
73 149 5.377238809458774E-4
73 150 4.939059902648149E-4
73 151 4.531549340864822E-4
73 152 4.153044487175457E-4
73 153 3.801928140025063E-4
73 154 3.4766316169206583E-4
73 155 3.175637321289198E-4
73 156 2.8974808198221224E-4
73 157 2.64075245893548E-4
73 158 2.404098549935424E-4
73 159 2.186222153105597E-4
73 160 1.9858834912484408E-4
73 161 1.801900023241393E-4
73 162 1.6331462079362345E-4
73 163 1.478552988261544E-4
73 164 1.3371070247100844E-4
73 165 1.2078497065307907E-4
73 166 1.0898759679241744E-4
73 167 9.8233293538506E-5
73 168 8.844184310713185E-5
73 169 7.953793557242816E-5
73 170 7.145099732471724E-5
73 171 6.41150117582164E-5
73 172 5.746833410330014E-5
73 173 5.1453502167554E-5
74 1 1.324547042839964E-3
74 2 1.3319052294988873E-3
74 3 1.3466264931144873E-3
74 4 1.3687204891752818E-3
74 5 1.3982013889386436E-3
74 6 1.435087507277054E-3
74 7 1.4794008101644545E-3
74 8 1.5311663049600167E-3
74 9 1.590411317427173E-3
74 10 1.6571646601995992E-3
74 11 1.7314556981710464E-3
74 12 1.813313317040007E-3
74 13 1.9027648019803974E-3
74 14 1.9998346341324777E-3
74 15 2.104543213310444E-3
74 16 2.216905516000357E-3
74 17 2.336929698369744E-3
74 18 2.4646156546233576E-3
74 19 2.599953541612732E-3
74 20 2.7429222811347267E-3
74 21 2.893488051830055E-3
74 22 3.05160278301076E-3
74 23 3.2172026630992697E-3
74 24 3.390206675644708E-3
74 25 3.570515176088206E-3
74 26 3.758008522571908E-3
74 27 3.901092271952699E-3
74 28 4.107946424861764E-3
74 29 4.32096521145483E-3
74 30 4.53998292177005E-3
74 31 4.76480486080035E-3
74 32 4.995206766193312E-3
74 33 5.230934364960887E-3
74 34 5.471703079103E-3
74 35 5.717197889348822E-3
74 36 5.967073365401693E-3
74 37 6.220953870141162E-3
74 38 6.478433944192542E-3
74 39 6.739078876126403E-3
74 40 7.002425462304573E-3
74 41 7.267982959054018E-3
74 42 7.535234228435287E-3
74 43 7.803637077389106E-3
74 44 8.072625788505754E-3
74 45 8.341612839080366E-3
74 46 8.609990803507927E-3
74 47 8.87713443244969E-3
74 48 9.142402900584164E-3
74 49 9.405142213157209E-3
74 50 9.664687759983982E-3
74 51 9.920367004047512E-3
74 52 1.0171502290401539E-2
74 53 1.0417413759735424E-2
74 54 1.0657422349712599E-2
74 55 1.0890852866066733E-2
74 56 1.1117037104445721E-2
74 57 1.1335317003146307E-2
74 58 1.1545047806193727E-2
74 59 1.174560121570136E-2
74 60 1.1936368512104304E-2
74 61 1.211676362070477E-2
74 62 1.2286226103001317E-2
74 63 1.2444224051501605E-2
74 64 1.2590256867140038E-2
74 65 1.2723857899036553E-2
74 66 1.2844596927137332E-2
74 67 1.2952082469266922E-2
74 68 1.3045963895286368E-2
74 69 1.3125933332383884E-2
74 70 1.3191727347011566E-2
74 71 1.3243128390610169E-2
74 72 1.3279965998018756E-2
74 73 1.33021177293305E-2
74 74 1.330950984791183E-2
74 75 1.33021177293305E-2
74 76 1.3279965998018756E-2
74 77 1.3243128390610169E-2
74 78 1.3191727347011566E-2
74 79 1.3125933332383884E-2
74 80 1.3045963895286368E-2
74 81 1.2952082469266922E-2
74 82 1.2844596927137332E-2
74 83 1.2723857899036553E-2
74 84 1.2590256867140038E-2
74 85 1.2444224051501605E-2
74 86 1.2286226103001317E-2
74 87 1.211676362070477E-2
74 88 1.1936368512104304E-2
74 89 1.174560121570136E-2
74 90 1.1545047806193727E-2
74 91 1.1335317003146307E-2
74 92 1.1117037104445721E-2
74 93 1.0890852866066733E-2
74 94 1.0657422349712599E-2
74 95 1.0417413759735424E-2
74 96 1.0171502290401539E-2
74 97 9.920367004047512E-3
74 98 9.664687759983982E-3
74 99 9.405142213157209E-3
74 100 9.142402900584164E-3
74 101 8.87713443244969E-3
74 102 8.609990803507927E-3
74 103 8.341612839080366E-3
74 104 8.072625788505754E-3
74 105 7.803637077389106E-3
74 106 7.535234228435287E-3
74 107 7.267982959054018E-3
74 108 7.002425462304573E-3
74 109 6.739078876126403E-3
74 110 6.478433944192542E-3
74 111 6.220953870141162E-3
74 112 5.967073365401693E-3
74 113 5.717197889348822E-3
74 114 5.471703079103E-3
74 115 5.230934364960887E-3
74 116 4.995206766193312E-3
74 117 4.76480486080035E-3
74 118 4.53998292177005E-3
74 119 4.32096521145483E-3
74 120 4.107946424861764E-3
74 121 3.901092271952699E-3
74 122 3.7005401884686075E-3
74 123 3.5064001643299895E-3
74 124 3.3187556783199905E-3
74 125 3.1376647275268414E-3
74 126 2.9631609399036283E-3
74 127 2.795254758291549E-3
74 128 2.633934684342309E-3
74 129 2.4791685709596527E-3
74 130 2.330904952152349E-3
74 131 2.1890743995435897E-3
74 132 2.0535908952067335E-3
74 133 1.9243532109863046E-3
74 134 1.8012462850076334E-3
74 135 1.6841425866698377E-3
74 136 1.5729034620464647E-3
74 137 1.4673804522774983E-3
74 138 1.367416578217387E-3
74 139 1.2728475852982531E-3
74 140 1.183503143267951E-3
74 141 1.0992079961619481E-3
74 142 1.0197830585595082E-3
74 143 9.450464548521614E-4
74 144 8.748144989104668E-4
74 145 8.089026121686099E-4
74 146 7.471261787510978E-4
74 147 6.893013368380249E-4
74 148 6.352457060019391E-4
74 149 5.847790507477894E-4
74 150 5.377238809458774E-4
74 151 4.939059902648149E-4
74 152 4.531549340864822E-4
74 153 4.153044487175457E-4
74 154 3.801928140025063E-4
74 155 3.4766316169206583E-4
74 156 3.175637321289198E-4
74 157 2.8974808198221224E-4
74 158 2.64075245893548E-4
74 159 2.404098549935424E-4
74 160 2.186222153105597E-4
74 161 1.9858834912484408E-4
74 162 1.801900023241393E-4
74 163 1.6331462079362345E-4
74 164 1.478552988261544E-4
74 165 1.3371070247100844E-4
74 166 1.2078497065307907E-4
74 167 1.0898759679241744E-4
74 168 9.8233293538506E-5
74 169 8.844184310713185E-5
74 170 7.953793557242816E-5
74 171 7.145099732471724E-5
74 172 6.41150117582164E-5
74 173 5.746833410330014E-5
74 174 5.1453502167554E-5
75 1 1.2200247567497285E-3
75 2 1.2270252177839023E-3
75 3 1.2410321690159128E-3
75 4 1.262057546255092E-3
75 5 1.2901189476280126E-3
75 6 1.3252392688546677E-3
75 7 1.367446220251574E-3
75 8 1.416771728290868E-3
75 9 1.4732512252501632E-3
75 10 1.5369228311918012E-3
75 11 1.6078264332109293E-3
75 12 1.686002667588058E-3
75 13 1.7714918111713088E-3
75 14 1.864332588993977E-3
75 15 1.9645609058012567E-3
75 16 2.072208509812459E-3
75 17 2.187301597677742E-3
75 18 2.309859370196669E-3
75 19 2.4398925489447667E-3
75 20 2.577401864498159E-3
75 21 2.7223765274494408E-3
75 22 2.8747926938639773E-3
75 23 3.0346119372283457E-3
75 24 3.2017797392850577E-3
75 25 3.376224012423291E-3
75 26 3.5064001643299895E-3
75 27 3.7005401884686075E-3
75 28 3.901092271952699E-3
75 29 4.107946424861764E-3
75 30 4.32096521145483E-3
75 31 4.53998292177005E-3
75 32 4.76480486080035E-3
75 33 4.995206766193312E-3
75 34 5.230934364960887E-3
75 35 5.471703079103E-3
75 36 5.717197889348822E-3
75 37 5.967073365401693E-3
75 38 6.220953870141162E-3
75 39 6.478433944192542E-3
75 40 6.739078876126403E-3
75 41 7.002425462304573E-3
75 42 7.267982959054018E-3
75 43 7.535234228435287E-3
75 44 7.803637077389106E-3
75 45 8.072625788505754E-3
75 46 8.341612839080366E-3
75 47 8.609990803507927E-3
75 48 8.87713443244969E-3
75 49 9.142402900584164E-3
75 50 9.405142213157209E-3
75 51 9.664687759983982E-3
75 52 9.920367004047512E-3
75 53 1.0171502290401539E-2
75 54 1.0417413759735424E-2
75 55 1.0657422349712599E-2
75 56 1.0890852866066733E-2
75 57 1.1117037104445721E-2
75 58 1.1335317003146307E-2
75 59 1.1545047806193727E-2
75 60 1.174560121570136E-2
75 61 1.1936368512104304E-2
75 62 1.211676362070477E-2
75 63 1.2286226103001317E-2
75 64 1.2444224051501605E-2
75 65 1.2590256867140038E-2
75 66 1.2723857899036553E-2
75 67 1.2844596927137332E-2
75 68 1.2952082469266922E-2
75 69 1.3045963895286368E-2
75 70 1.3125933332383884E-2
75 71 1.3191727347011566E-2
75 72 1.3243128390610169E-2
75 73 1.3279965998018756E-2
75 74 1.33021177293305E-2
75 75 1.330950984791183E-2
75 76 1.33021177293305E-2
75 77 1.3279965998018756E-2
75 78 1.3243128390610169E-2
75 79 1.3191727347011566E-2
75 80 1.3125933332383884E-2
75 81 1.3045963895286368E-2
75 82 1.2952082469266922E-2
75 83 1.2844596927137332E-2
75 84 1.2723857899036553E-2
75 85 1.2590256867140038E-2
75 86 1.2444224051501605E-2
75 87 1.2286226103001317E-2
75 88 1.211676362070477E-2
75 89 1.1936368512104304E-2
75 90 1.174560121570136E-2
75 91 1.1545047806193727E-2
75 92 1.1335317003146307E-2
75 93 1.1117037104445721E-2
75 94 1.0890852866066733E-2
75 95 1.0657422349712599E-2
75 96 1.0417413759735424E-2
75 97 1.0171502290401539E-2
75 98 9.920367004047512E-3
75 99 9.664687759983982E-3
75 100 9.405142213157209E-3
75 101 9.142402900584164E-3
75 102 8.87713443244969E-3
75 103 8.609990803507927E-3
75 104 8.341612839080366E-3
75 105 8.072625788505754E-3
75 106 7.803637077389106E-3
75 107 7.535234228435287E-3
75 108 7.267982959054018E-3
75 109 7.002425462304573E-3
75 110 6.739078876126403E-3
75 111 6.478433944192542E-3
75 112 6.220953870141162E-3
75 113 5.967073365401693E-3
75 114 5.717197889348822E-3
75 115 5.471703079103E-3
75 116 5.230934364960887E-3
75 117 4.995206766193312E-3
75 118 4.76480486080035E-3
75 119 4.53998292177005E-3
75 120 4.32096521145483E-3
75 121 4.107946424861764E-3
75 122 3.901092271952699E-3
75 123 3.7005401884686075E-3
75 124 3.5064001643299895E-3
75 125 3.3187556783199905E-3
75 126 3.1376647275268414E-3
75 127 2.9631609399036283E-3
75 128 2.795254758291549E-3
75 129 2.633934684342309E-3
75 130 2.4791685709596527E-3
75 131 2.330904952152349E-3
75 132 2.1890743995435897E-3
75 133 2.0535908952067335E-3
75 134 1.9243532109863046E-3
75 135 1.8012462850076334E-3
75 136 1.6841425866698377E-3
75 137 1.5729034620464647E-3
75 138 1.4673804522774983E-3
75 139 1.367416578217387E-3
75 140 1.2728475852982531E-3
75 141 1.183503143267951E-3
75 142 1.0992079961619481E-3
75 143 1.0197830585595082E-3
75 144 9.450464548521614E-4
75 145 8.748144989104668E-4
75 146 8.089026121686099E-4
75 147 7.471261787510978E-4
75 148 6.893013368380249E-4
75 149 6.352457060019391E-4
75 150 5.847790507477894E-4
75 151 5.377238809458774E-4
75 152 4.939059902648149E-4
75 153 4.531549340864822E-4
75 154 4.153044487175457E-4
75 155 3.801928140025063E-4
75 156 3.4766316169206583E-4
75 157 3.175637321289198E-4
75 158 2.8974808198221224E-4
75 159 2.64075245893548E-4
75 160 2.404098549935424E-4
75 161 2.186222153105597E-4
75 162 1.9858834912484408E-4
75 163 1.801900023241393E-4
75 164 1.6331462079362345E-4
75 165 1.478552988261544E-4
75 166 1.3371070247100844E-4
75 167 1.2078497065307907E-4
75 168 1.0898759679241744E-4
75 169 9.8233293538506E-5
75 170 8.844184310713185E-5
75 171 7.953793557242816E-5
75 172 7.145099732471724E-5
75 173 6.41150117582164E-5
75 174 5.746833410330014E-5
75 175 5.1453502167554E-5
76 1 1.1225029316936667E-3
76 2 1.129151696266754E-3
76 3 1.1424562709245072E-3
76 4 1.1624306274686436E-3
76 5 1.1890954261711162E-3
76 6 1.2224776606025326E-3
76 7 1.2626101869810812E-3
76 8 1.3095311405417205E-3
76 9 1.3632832420554962E-3
76 10 1.4239129982614933E-3
76 11 1.4914698006088128E-3
76 12 1.566004927342231E-3
76 13 1.6475704546016377E-3
76 14 1.7362180828400882E-3
76 15 1.8319978854959922E-3
76 16 1.9349569874786419E-3
76 17 2.045138181639384E-3
76 18 2.162578491999151E-3
76 19 2.2873076930820958E-3
76 20 2.419346795259481E-3
76 21 2.558706506532081E-3
76 22 2.7053856816670265E-3
76 23 2.8593697700497653E-3
76 24 3.0206292740069286E-3
76 25 3.1376647275268414E-3
76 26 3.3187556783199905E-3
76 27 3.5064001643299895E-3
76 28 3.7005401884686075E-3
76 29 3.901092271952699E-3
76 30 4.107946424861764E-3
76 31 4.32096521145483E-3
76 32 4.53998292177005E-3
76 33 4.76480486080035E-3
76 34 4.995206766193312E-3
76 35 5.230934364960887E-3
76 36 5.471703079103E-3
76 37 5.717197889348822E-3
76 38 5.967073365401693E-3
76 39 6.220953870141162E-3
76 40 6.478433944192542E-3
76 41 6.739078876126403E-3
76 42 7.002425462304573E-3
76 43 7.267982959054018E-3
76 44 7.535234228435287E-3
76 45 7.803637077389106E-3
76 46 8.072625788505754E-3
76 47 8.341612839080366E-3
76 48 8.609990803507927E-3
76 49 8.87713443244969E-3
76 50 9.142402900584164E-3
76 51 9.405142213157209E-3
76 52 9.664687759983982E-3
76 53 9.920367004047512E-3
76 54 1.0171502290401539E-2
76 55 1.0417413759735424E-2
76 56 1.0657422349712599E-2
76 57 1.0890852866066733E-2
76 58 1.1117037104445721E-2
76 59 1.1335317003146307E-2
76 60 1.1545047806193727E-2
76 61 1.174560121570136E-2
76 62 1.1936368512104304E-2
76 63 1.211676362070477E-2
76 64 1.2286226103001317E-2
76 65 1.2444224051501605E-2
76 66 1.2590256867140038E-2
76 67 1.2723857899036553E-2
76 68 1.2844596927137332E-2
76 69 1.2952082469266922E-2
76 70 1.3045963895286368E-2
76 71 1.3125933332383884E-2
76 72 1.3191727347011566E-2
76 73 1.3243128390610169E-2
76 74 1.3279965998018756E-2
76 75 1.33021177293305E-2
76 76 1.330950984791183E-2
76 77 1.33021177293305E-2
76 78 1.3279965998018756E-2
76 79 1.3243128390610169E-2
76 80 1.3191727347011566E-2
76 81 1.3125933332383884E-2
76 82 1.3045963895286368E-2
76 83 1.2952082469266922E-2
76 84 1.2844596927137332E-2
76 85 1.2723857899036553E-2
76 86 1.2590256867140038E-2
76 87 1.2444224051501605E-2
76 88 1.2286226103001317E-2
76 89 1.211676362070477E-2
76 90 1.1936368512104304E-2
76 91 1.174560121570136E-2
76 92 1.1545047806193727E-2
76 93 1.1335317003146307E-2
76 94 1.1117037104445721E-2
76 95 1.0890852866066733E-2
76 96 1.0657422349712599E-2
76 97 1.0417413759735424E-2
76 98 1.0171502290401539E-2
76 99 9.920367004047512E-3
76 100 9.664687759983982E-3
76 101 9.405142213157209E-3
76 102 9.142402900584164E-3
76 103 8.87713443244969E-3
76 104 8.609990803507927E-3
76 105 8.341612839080366E-3
76 106 8.072625788505754E-3
76 107 7.803637077389106E-3
76 108 7.535234228435287E-3
76 109 7.267982959054018E-3
76 110 7.002425462304573E-3
76 111 6.739078876126403E-3
76 112 6.478433944192542E-3
76 113 6.220953870141162E-3
76 114 5.967073365401693E-3
76 115 5.717197889348822E-3
76 116 5.471703079103E-3
76 117 5.230934364960887E-3
76 118 4.995206766193312E-3
76 119 4.76480486080035E-3
76 120 4.53998292177005E-3
76 121 4.32096521145483E-3
76 122 4.107946424861764E-3
76 123 3.901092271952699E-3
76 124 3.7005401884686075E-3
76 125 3.5064001643299895E-3
76 126 3.3187556783199905E-3
76 127 3.1376647275268414E-3
76 128 2.9631609399036283E-3
76 129 2.795254758291549E-3
76 130 2.633934684342309E-3
76 131 2.4791685709596527E-3
76 132 2.330904952152349E-3
76 133 2.1890743995435897E-3
76 134 2.0535908952067335E-3
76 135 1.9243532109863046E-3
76 136 1.8012462850076334E-3
76 137 1.6841425866698377E-3
76 138 1.5729034620464647E-3
76 139 1.4673804522774983E-3
76 140 1.367416578217387E-3
76 141 1.2728475852982531E-3
76 142 1.183503143267951E-3
76 143 1.0992079961619481E-3
76 144 1.0197830585595082E-3
76 145 9.450464548521614E-4
76 146 8.748144989104668E-4
76 147 8.089026121686099E-4
76 148 7.471261787510978E-4
76 149 6.893013368380249E-4
76 150 6.352457060019391E-4
76 151 5.847790507477894E-4
76 152 5.377238809458774E-4
76 153 4.939059902648149E-4
76 154 4.531549340864822E-4
76 155 4.153044487175457E-4
76 156 3.801928140025063E-4
76 157 3.4766316169206583E-4
76 158 3.175637321289198E-4
76 159 2.8974808198221224E-4
76 160 2.64075245893548E-4
76 161 2.404098549935424E-4
76 162 2.186222153105597E-4
76 163 1.9858834912484408E-4
76 164 1.801900023241393E-4
76 165 1.6331462079362345E-4
76 166 1.478552988261544E-4
76 167 1.3371070247100844E-4
76 168 1.2078497065307907E-4
76 169 1.0898759679241744E-4
76 170 9.8233293538506E-5
76 171 8.844184310713185E-5
76 172 7.953793557242816E-5
76 173 7.145099732471724E-5
76 174 6.41150117582164E-5
76 175 5.746833410330014E-5
76 176 5.1453502167554E-5
77 1 1.0316298712106922E-3
77 2 1.0379339848342716E-3
77 3 1.0505501547194848E-3
77 4 1.0694941508405313E-3
77 5 1.0947893404431636E-3
77 6 1.1264663442975297E-3
77 7 1.164562580892679E-3
77 8 1.2091217007457094E-3
77 9 1.2601929135530505E-3
77 10 1.3178302114725078E-3
77 11 1.382091492392795E-3
77 12 1.4530375876223925E-3
77 13 1.5307311990110104E-3
77 14 1.6152357511036528E-3
77 15 1.7066141645174732E-3
77 16 1.8049275573229168E-3
77 17 1.9102338818000508E-3
77 18 2.0225865045248106E-3
77 19 2.1420327383138652E-3
77 20 2.268612335116018E-3
77 21 2.4023559494770665E-3
77 22 2.543283582717869E-3
77 23 2.6914030184456094E-3
77 24 2.795254758291549E-3
77 25 2.9631609399036283E-3
77 26 3.1376647275268414E-3
77 27 3.3187556783199905E-3
77 28 3.5064001643299895E-3
77 29 3.7005401884686075E-3
77 30 3.901092271952699E-3
77 31 4.107946424861764E-3
77 32 4.32096521145483E-3
77 33 4.53998292177005E-3
77 34 4.76480486080035E-3
77 35 4.995206766193312E-3
77 36 5.230934364960887E-3
77 37 5.471703079103E-3
77 38 5.717197889348822E-3
77 39 5.967073365401693E-3
77 40 6.220953870141162E-3
77 41 6.478433944192542E-3
77 42 6.739078876126403E-3
77 43 7.002425462304573E-3
77 44 7.267982959054018E-3
77 45 7.535234228435287E-3
77 46 7.803637077389106E-3
77 47 8.072625788505754E-3
77 48 8.341612839080366E-3
77 49 8.609990803507927E-3
77 50 8.87713443244969E-3
77 51 9.142402900584164E-3
77 52 9.405142213157209E-3
77 53 9.664687759983982E-3
77 54 9.920367004047512E-3
77 55 1.0171502290401539E-2
77 56 1.0417413759735424E-2
77 57 1.0657422349712599E-2
77 58 1.0890852866066733E-2
77 59 1.1117037104445721E-2
77 60 1.1335317003146307E-2
77 61 1.1545047806193727E-2
77 62 1.174560121570136E-2
77 63 1.1936368512104304E-2
77 64 1.211676362070477E-2
77 65 1.2286226103001317E-2
77 66 1.2444224051501605E-2
77 67 1.2590256867140038E-2
77 68 1.2723857899036553E-2
77 69 1.2844596927137332E-2
77 70 1.2952082469266922E-2
77 71 1.3045963895286368E-2
77 72 1.3125933332383884E-2
77 73 1.3191727347011566E-2
77 74 1.3243128390610169E-2
77 75 1.3279965998018756E-2
77 76 1.33021177293305E-2
77 77 1.330950984791183E-2
77 78 1.33021177293305E-2
77 79 1.3279965998018756E-2
77 80 1.3243128390610169E-2
77 81 1.3191727347011566E-2
77 82 1.3125933332383884E-2
77 83 1.3045963895286368E-2
77 84 1.2952082469266922E-2
77 85 1.2844596927137332E-2
77 86 1.2723857899036553E-2
77 87 1.2590256867140038E-2
77 88 1.2444224051501605E-2
77 89 1.2286226103001317E-2
77 90 1.211676362070477E-2
77 91 1.1936368512104304E-2
77 92 1.174560121570136E-2
77 93 1.1545047806193727E-2
77 94 1.1335317003146307E-2
77 95 1.1117037104445721E-2
77 96 1.0890852866066733E-2
77 97 1.0657422349712599E-2
77 98 1.0417413759735424E-2
77 99 1.0171502290401539E-2
77 100 9.920367004047512E-3
77 101 9.664687759983982E-3
77 102 9.405142213157209E-3
77 103 9.142402900584164E-3
77 104 8.87713443244969E-3
77 105 8.609990803507927E-3
77 106 8.341612839080366E-3
77 107 8.072625788505754E-3
77 108 7.803637077389106E-3
77 109 7.535234228435287E-3
77 110 7.267982959054018E-3
77 111 7.002425462304573E-3
77 112 6.739078876126403E-3
77 113 6.478433944192542E-3
77 114 6.220953870141162E-3
77 115 5.967073365401693E-3
77 116 5.717197889348822E-3
77 117 5.471703079103E-3
77 118 5.230934364960887E-3
77 119 4.995206766193312E-3
77 120 4.76480486080035E-3
77 121 4.53998292177005E-3
77 122 4.32096521145483E-3
77 123 4.107946424861764E-3
77 124 3.901092271952699E-3
77 125 3.7005401884686075E-3
77 126 3.5064001643299895E-3
77 127 3.3187556783199905E-3
77 128 3.1376647275268414E-3
77 129 2.9631609399036283E-3
77 130 2.795254758291549E-3
77 131 2.633934684342309E-3
77 132 2.4791685709596527E-3
77 133 2.330904952152349E-3
77 134 2.1890743995435897E-3
77 135 2.0535908952067335E-3
77 136 1.9243532109863046E-3
77 137 1.8012462850076334E-3
77 138 1.6841425866698377E-3
77 139 1.5729034620464647E-3
77 140 1.4673804522774983E-3
77 141 1.367416578217387E-3
77 142 1.2728475852982531E-3
77 143 1.183503143267951E-3
77 144 1.0992079961619481E-3
77 145 1.0197830585595082E-3
77 146 9.450464548521614E-4
77 147 8.748144989104668E-4
77 148 8.089026121686099E-4
77 149 7.471261787510978E-4
77 150 6.893013368380249E-4
77 151 6.352457060019391E-4
77 152 5.847790507477894E-4
77 153 5.377238809458774E-4
77 154 4.939059902648149E-4
77 155 4.531549340864822E-4
77 156 4.153044487175457E-4
77 157 3.801928140025063E-4
77 158 3.4766316169206583E-4
77 159 3.175637321289198E-4
77 160 2.8974808198221224E-4
77 161 2.64075245893548E-4
77 162 2.404098549935424E-4
77 163 2.186222153105597E-4
77 164 1.9858834912484408E-4
77 165 1.801900023241393E-4
77 166 1.6331462079362345E-4
77 167 1.478552988261544E-4
77 168 1.3371070247100844E-4
77 169 1.2078497065307907E-4
77 170 1.0898759679241744E-4
77 171 9.8233293538506E-5
77 172 8.844184310713185E-5
77 173 7.953793557242816E-5
77 174 7.145099732471724E-5
77 175 6.41150117582164E-5
77 176 5.746833410330014E-5
77 177 5.1453502167554E-5
78 1 9.470609243512971E-4
78 2 9.530283296634232E-4
78 3 9.649718647502957E-4
78 4 9.82908867694005E-4
78 5 1.0068650689669448E-3
78 6 1.03687426073331E-3
78 7 1.072977858062158E-3
78 8 1.1152243539040091E-3
78 9 1.1636686701627212E-3
78 10 1.2183714076843522E-3
78 11 1.2793979984860875E-3
78 12 1.3468177640615744E-3
78 13 1.4207028841244076E-3
78 14 1.5011272806883954E-3
78 15 1.5881654229305774E-3
78 16 1.6818910588388821E-3
78 17 1.7823758802083438E-3
78 18 1.8896881281147654E-3
78 19 2.003891146558733E-3
78 20 2.125041892531451E-3
78 21 2.253189411301806E-3
78 22 2.3883732862556495E-3
78 23 2.4791685709596527E-3
78 24 2.633934684342309E-3
78 25 2.795254758291549E-3
78 26 2.9631609399036283E-3
78 27 3.1376647275268414E-3
78 28 3.3187556783199905E-3
78 29 3.5064001643299895E-3
78 30 3.7005401884686075E-3
78 31 3.901092271952699E-3
78 32 4.107946424861764E-3
78 33 4.32096521145483E-3
78 34 4.53998292177005E-3
78 35 4.76480486080035E-3
78 36 4.995206766193312E-3
78 37 5.230934364960887E-3
78 38 5.471703079103E-3
78 39 5.717197889348822E-3
78 40 5.967073365401693E-3
78 41 6.220953870141162E-3
78 42 6.478433944192542E-3
78 43 6.739078876126403E-3
78 44 7.002425462304573E-3
78 45 7.267982959054018E-3
78 46 7.535234228435287E-3
78 47 7.803637077389106E-3
78 48 8.072625788505754E-3
78 49 8.341612839080366E-3
78 50 8.609990803507927E-3
78 51 8.87713443244969E-3
78 52 9.142402900584164E-3
78 53 9.405142213157209E-3
78 54 9.664687759983982E-3
78 55 9.920367004047512E-3
78 56 1.0171502290401539E-2
78 57 1.0417413759735424E-2
78 58 1.0657422349712599E-2
78 59 1.0890852866066733E-2
78 60 1.1117037104445721E-2
78 61 1.1335317003146307E-2
78 62 1.1545047806193727E-2
78 63 1.174560121570136E-2
78 64 1.1936368512104304E-2
78 65 1.211676362070477E-2
78 66 1.2286226103001317E-2
78 67 1.2444224051501605E-2
78 68 1.2590256867140038E-2
78 69 1.2723857899036553E-2
78 70 1.2844596927137332E-2
78 71 1.2952082469266922E-2
78 72 1.3045963895286368E-2
78 73 1.3125933332383884E-2
78 74 1.3191727347011566E-2
78 75 1.3243128390610169E-2
78 76 1.3279965998018756E-2
78 77 1.33021177293305E-2
78 78 1.330950984791183E-2
78 79 1.33021177293305E-2
78 80 1.3279965998018756E-2
78 81 1.3243128390610169E-2
78 82 1.3191727347011566E-2
78 83 1.3125933332383884E-2
78 84 1.3045963895286368E-2
78 85 1.2952082469266922E-2
78 86 1.2844596927137332E-2
78 87 1.2723857899036553E-2
78 88 1.2590256867140038E-2
78 89 1.2444224051501605E-2
78 90 1.2286226103001317E-2
78 91 1.211676362070477E-2
78 92 1.1936368512104304E-2
78 93 1.174560121570136E-2
78 94 1.1545047806193727E-2
78 95 1.1335317003146307E-2
78 96 1.1117037104445721E-2
78 97 1.0890852866066733E-2
78 98 1.0657422349712599E-2
78 99 1.0417413759735424E-2
78 100 1.0171502290401539E-2
78 101 9.920367004047512E-3
78 102 9.664687759983982E-3
78 103 9.405142213157209E-3
78 104 9.142402900584164E-3
78 105 8.87713443244969E-3
78 106 8.609990803507927E-3
78 107 8.341612839080366E-3
78 108 8.072625788505754E-3
78 109 7.803637077389106E-3
78 110 7.535234228435287E-3
78 111 7.267982959054018E-3
78 112 7.002425462304573E-3
78 113 6.739078876126403E-3
78 114 6.478433944192542E-3
78 115 6.220953870141162E-3
78 116 5.967073365401693E-3
78 117 5.717197889348822E-3
78 118 5.471703079103E-3
78 119 5.230934364960887E-3
78 120 4.995206766193312E-3
78 121 4.76480486080035E-3
78 122 4.53998292177005E-3
78 123 4.32096521145483E-3
78 124 4.107946424861764E-3
78 125 3.901092271952699E-3
78 126 3.7005401884686075E-3
78 127 3.5064001643299895E-3
78 128 3.3187556783199905E-3
78 129 3.1376647275268414E-3
78 130 2.9631609399036283E-3
78 131 2.795254758291549E-3
78 132 2.633934684342309E-3
78 133 2.4791685709596527E-3
78 134 2.330904952152349E-3
78 135 2.1890743995435897E-3
78 136 2.0535908952067335E-3
78 137 1.9243532109863046E-3
78 138 1.8012462850076334E-3
78 139 1.6841425866698377E-3
78 140 1.5729034620464647E-3
78 141 1.4673804522774983E-3
78 142 1.367416578217387E-3
78 143 1.2728475852982531E-3
78 144 1.183503143267951E-3
78 145 1.0992079961619481E-3
78 146 1.0197830585595082E-3
78 147 9.450464548521614E-4
78 148 8.748144989104668E-4
78 149 8.089026121686099E-4
78 150 7.471261787510978E-4
78 151 6.893013368380249E-4
78 152 6.352457060019391E-4
78 153 5.847790507477894E-4
78 154 5.377238809458774E-4
78 155 4.939059902648149E-4
78 156 4.531549340864822E-4
78 157 4.153044487175457E-4
78 158 3.801928140025063E-4
78 159 3.4766316169206583E-4
78 160 3.175637321289198E-4
78 161 2.8974808198221224E-4
78 162 2.64075245893548E-4
78 163 2.404098549935424E-4
78 164 2.186222153105597E-4
78 165 1.9858834912484408E-4
78 166 1.801900023241393E-4
78 167 1.6331462079362345E-4
78 168 1.478552988261544E-4
78 169 1.3371070247100844E-4
78 170 1.2078497065307907E-4
78 171 1.0898759679241744E-4
78 172 9.8233293538506E-5
78 173 8.844184310713185E-5
78 174 7.953793557242816E-5
78 175 7.145099732471724E-5
78 176 6.41150117582164E-5
78 177 5.746833410330014E-5
78 178 5.1453502167554E-5
79 1 8.684593828040279E-4
79 2 8.740988042673212E-4
79 3 8.853870426379432E-4
79 4 9.023427828767092E-4
79 5 9.249937879841513E-4
79 6 9.53376582731573E-4
79 7 9.875360337446401E-4
79 8 1.0275248274791695E-3
79 9 1.0734028480353108E-3
79 10 1.1252364571763007E-3
79 11 1.1830976793531316E-3
79 12 1.2470632949881026E-3
79 13 1.3172138457389594E-3
79 14 1.3936325559513322E-3
79 15 1.4764041750098043E-3
79 16 1.5656137458160044E-3
79 17 1.6613453051535967E-3
79 18 1.7636805222422658E-3
79 19 1.8726972823323506E-3
79 20 1.988468222744521E-3
79 21 2.111059229310034E-3
79 22 2.1890743995435897E-3
79 23 2.330904952152349E-3
79 24 2.4791685709596527E-3
79 25 2.633934684342309E-3
79 26 2.795254758291549E-3
79 27 2.9631609399036283E-3
79 28 3.1376647275268414E-3
79 29 3.3187556783199905E-3
79 30 3.5064001643299895E-3
79 31 3.7005401884686075E-3
79 32 3.901092271952699E-3
79 33 4.107946424861764E-3
79 34 4.32096521145483E-3
79 35 4.53998292177005E-3
79 36 4.76480486080035E-3
79 37 4.995206766193312E-3
79 38 5.230934364960887E-3
79 39 5.471703079103E-3
79 40 5.717197889348822E-3
79 41 5.967073365401693E-3
79 42 6.220953870141162E-3
79 43 6.478433944192542E-3
79 44 6.739078876126403E-3
79 45 7.002425462304573E-3
79 46 7.267982959054018E-3
79 47 7.535234228435287E-3
79 48 7.803637077389106E-3
79 49 8.072625788505754E-3
79 50 8.341612839080366E-3
79 51 8.609990803507927E-3
79 52 8.87713443244969E-3
79 53 9.142402900584164E-3
79 54 9.405142213157209E-3
79 55 9.664687759983982E-3
79 56 9.920367004047512E-3
79 57 1.0171502290401539E-2
79 58 1.0417413759735424E-2
79 59 1.0657422349712599E-2
79 60 1.0890852866066733E-2
79 61 1.1117037104445721E-2
79 62 1.1335317003146307E-2
79 63 1.1545047806193727E-2
79 64 1.174560121570136E-2
79 65 1.1936368512104304E-2
79 66 1.211676362070477E-2
79 67 1.2286226103001317E-2
79 68 1.2444224051501605E-2
79 69 1.2590256867140038E-2
79 70 1.2723857899036553E-2
79 71 1.2844596927137332E-2
79 72 1.2952082469266922E-2
79 73 1.3045963895286368E-2
79 74 1.3125933332383884E-2
79 75 1.3191727347011566E-2
79 76 1.3243128390610169E-2
79 77 1.3279965998018756E-2
79 78 1.33021177293305E-2
79 79 1.330950984791183E-2
79 80 1.33021177293305E-2
79 81 1.3279965998018756E-2
79 82 1.3243128390610169E-2
79 83 1.3191727347011566E-2
79 84 1.3125933332383884E-2
79 85 1.3045963895286368E-2
79 86 1.2952082469266922E-2
79 87 1.2844596927137332E-2
79 88 1.2723857899036553E-2
79 89 1.2590256867140038E-2
79 90 1.2444224051501605E-2
79 91 1.2286226103001317E-2
79 92 1.211676362070477E-2
79 93 1.1936368512104304E-2
79 94 1.174560121570136E-2
79 95 1.1545047806193727E-2
79 96 1.1335317003146307E-2
79 97 1.1117037104445721E-2
79 98 1.0890852866066733E-2
79 99 1.0657422349712599E-2
79 100 1.0417413759735424E-2
79 101 1.0171502290401539E-2
79 102 9.920367004047512E-3
79 103 9.664687759983982E-3
79 104 9.405142213157209E-3
79 105 9.142402900584164E-3
79 106 8.87713443244969E-3
79 107 8.609990803507927E-3
79 108 8.341612839080366E-3
79 109 8.072625788505754E-3
79 110 7.803637077389106E-3
79 111 7.535234228435287E-3
79 112 7.267982959054018E-3
79 113 7.002425462304573E-3
79 114 6.739078876126403E-3
79 115 6.478433944192542E-3
79 116 6.220953870141162E-3
79 117 5.967073365401693E-3
79 118 5.717197889348822E-3
79 119 5.471703079103E-3
79 120 5.230934364960887E-3
79 121 4.995206766193312E-3
79 122 4.76480486080035E-3
79 123 4.53998292177005E-3
79 124 4.32096521145483E-3
79 125 4.107946424861764E-3
79 126 3.901092271952699E-3
79 127 3.7005401884686075E-3
79 128 3.5064001643299895E-3
79 129 3.3187556783199905E-3
79 130 3.1376647275268414E-3
79 131 2.9631609399036283E-3
79 132 2.795254758291549E-3
79 133 2.633934684342309E-3
79 134 2.4791685709596527E-3
79 135 2.330904952152349E-3
79 136 2.1890743995435897E-3
79 137 2.0535908952067335E-3
79 138 1.9243532109863046E-3
79 139 1.8012462850076334E-3
79 140 1.6841425866698377E-3
79 141 1.5729034620464647E-3
79 142 1.4673804522774983E-3
79 143 1.367416578217387E-3
79 144 1.2728475852982531E-3
79 145 1.183503143267951E-3
79 146 1.0992079961619481E-3
79 147 1.0197830585595082E-3
79 148 9.450464548521614E-4
79 149 8.748144989104668E-4
79 150 8.089026121686099E-4
79 151 7.471261787510978E-4
79 152 6.893013368380249E-4
79 153 6.352457060019391E-4
79 154 5.847790507477894E-4
79 155 5.377238809458774E-4
79 156 4.939059902648149E-4
79 157 4.531549340864822E-4
79 158 4.153044487175457E-4
79 159 3.801928140025063E-4
79 160 3.4766316169206583E-4
79 161 3.175637321289198E-4
79 162 2.8974808198221224E-4
79 163 2.64075245893548E-4
79 164 2.404098549935424E-4
79 165 2.186222153105597E-4
79 166 1.9858834912484408E-4
79 167 1.801900023241393E-4
79 168 1.6331462079362345E-4
79 169 1.478552988261544E-4
79 170 1.3371070247100844E-4
79 171 1.2078497065307907E-4
79 172 1.0898759679241744E-4
79 173 9.8233293538506E-5
79 174 8.844184310713185E-5
79 175 7.953793557242816E-5
79 176 7.145099732471724E-5
79 177 6.41150117582164E-5
79 178 5.746833410330014E-5
79 179 5.1453502167554E-5
80 1 7.95497262720052E-4
80 2 8.008180957785481E-4
80 3 8.114697223937347E-4
80 4 8.274719629280897E-4
80 5 8.488542966413374E-4
80 6 8.756555609954815E-4
80 7 9.079235521485846E-4
80 8 9.457145278759418E-4
80 9 9.890926144927492E-4
80 10 1.0381291197040902E-3
80 11 1.0929017536783158E-3
80 12 1.1534937610305166E-3
80 13 1.2199929668150272E-3
80 14 1.2924907400603683E-3
80 15 1.3710808788367592E-3
80 16 1.4558584213245189E-3
80 17 1.5469183878499264E-3
80 18 1.644354459371182E-3
80 19 1.748257598428054E-3
80 20 1.8587146191109336E-3
80 21 1.9243532109863046E-3
80 22 2.0535908952067335E-3
80 23 2.1890743995435897E-3
80 24 2.330904952152349E-3
80 25 2.4791685709596527E-3
80 26 2.633934684342309E-3
80 27 2.795254758291549E-3
80 28 2.9631609399036283E-3
80 29 3.1376647275268414E-3
80 30 3.3187556783199905E-3
80 31 3.5064001643299895E-3
80 32 3.7005401884686075E-3
80 33 3.901092271952699E-3
80 34 4.107946424861764E-3
80 35 4.32096521145483E-3
80 36 4.53998292177005E-3
80 37 4.76480486080035E-3
80 38 4.995206766193312E-3
80 39 5.230934364960887E-3
80 40 5.471703079103E-3
80 41 5.717197889348822E-3
80 42 5.967073365401693E-3
80 43 6.220953870141162E-3
80 44 6.478433944192542E-3
80 45 6.739078876126403E-3
80 46 7.002425462304573E-3
80 47 7.267982959054018E-3
80 48 7.535234228435287E-3
80 49 7.803637077389106E-3
80 50 8.072625788505754E-3
80 51 8.341612839080366E-3
80 52 8.609990803507927E-3
80 53 8.87713443244969E-3
80 54 9.142402900584164E-3
80 55 9.405142213157209E-3
80 56 9.664687759983982E-3
80 57 9.920367004047512E-3
80 58 1.0171502290401539E-2
80 59 1.0417413759735424E-2
80 60 1.0657422349712599E-2
80 61 1.0890852866066733E-2
80 62 1.1117037104445721E-2
80 63 1.1335317003146307E-2
80 64 1.1545047806193727E-2
80 65 1.174560121570136E-2
80 66 1.1936368512104304E-2
80 67 1.211676362070477E-2
80 68 1.2286226103001317E-2
80 69 1.2444224051501605E-2
80 70 1.2590256867140038E-2
80 71 1.2723857899036553E-2
80 72 1.2844596927137332E-2
80 73 1.2952082469266922E-2
80 74 1.3045963895286368E-2
80 75 1.3125933332383884E-2
80 76 1.3191727347011566E-2
80 77 1.3243128390610169E-2
80 78 1.3279965998018756E-2
80 79 1.33021177293305E-2
80 80 1.330950984791183E-2
80 81 1.33021177293305E-2
80 82 1.3279965998018756E-2
80 83 1.3243128390610169E-2
80 84 1.3191727347011566E-2
80 85 1.3125933332383884E-2
80 86 1.3045963895286368E-2
80 87 1.2952082469266922E-2
80 88 1.2844596927137332E-2
80 89 1.2723857899036553E-2
80 90 1.2590256867140038E-2
80 91 1.2444224051501605E-2
80 92 1.2286226103001317E-2
80 93 1.211676362070477E-2
80 94 1.1936368512104304E-2
80 95 1.174560121570136E-2
80 96 1.1545047806193727E-2
80 97 1.1335317003146307E-2
80 98 1.1117037104445721E-2
80 99 1.0890852866066733E-2
80 100 1.0657422349712599E-2
80 101 1.0417413759735424E-2
80 102 1.0171502290401539E-2
80 103 9.920367004047512E-3
80 104 9.664687759983982E-3
80 105 9.405142213157209E-3
80 106 9.142402900584164E-3
80 107 8.87713443244969E-3
80 108 8.609990803507927E-3
80 109 8.341612839080366E-3
80 110 8.072625788505754E-3
80 111 7.803637077389106E-3
80 112 7.535234228435287E-3
80 113 7.267982959054018E-3
80 114 7.002425462304573E-3
80 115 6.739078876126403E-3
80 116 6.478433944192542E-3
80 117 6.220953870141162E-3
80 118 5.967073365401693E-3
80 119 5.717197889348822E-3
80 120 5.471703079103E-3
80 121 5.230934364960887E-3
80 122 4.995206766193312E-3
80 123 4.76480486080035E-3
80 124 4.53998292177005E-3
80 125 4.32096521145483E-3
80 126 4.107946424861764E-3
80 127 3.901092271952699E-3
80 128 3.7005401884686075E-3
80 129 3.5064001643299895E-3
80 130 3.3187556783199905E-3
80 131 3.1376647275268414E-3
80 132 2.9631609399036283E-3
80 133 2.795254758291549E-3
80 134 2.633934684342309E-3
80 135 2.4791685709596527E-3
80 136 2.330904952152349E-3
80 137 2.1890743995435897E-3
80 138 2.0535908952067335E-3
80 139 1.9243532109863046E-3
80 140 1.8012462850076334E-3
80 141 1.6841425866698377E-3
80 142 1.5729034620464647E-3
80 143 1.4673804522774983E-3
80 144 1.367416578217387E-3
80 145 1.2728475852982531E-3
80 146 1.183503143267951E-3
80 147 1.0992079961619481E-3
80 148 1.0197830585595082E-3
80 149 9.450464548521614E-4
80 150 8.748144989104668E-4
80 151 8.089026121686099E-4
80 152 7.471261787510978E-4
80 153 6.893013368380249E-4
80 154 6.352457060019391E-4
80 155 5.847790507477894E-4
80 156 5.377238809458774E-4
80 157 4.939059902648149E-4
80 158 4.531549340864822E-4
80 159 4.153044487175457E-4
80 160 3.801928140025063E-4
80 161 3.4766316169206583E-4
80 162 3.175637321289198E-4
80 163 2.8974808198221224E-4
80 164 2.64075245893548E-4
80 165 2.404098549935424E-4
80 166 2.186222153105597E-4
80 167 1.9858834912484408E-4
80 168 1.801900023241393E-4
80 169 1.6331462079362345E-4
80 170 1.478552988261544E-4
80 171 1.3371070247100844E-4
80 172 1.2078497065307907E-4
80 173 1.0898759679241744E-4
80 174 9.8233293538506E-5
80 175 8.844184310713185E-5
80 176 7.953793557242816E-5
80 177 7.145099732471724E-5
80 178 6.41150117582164E-5
80 179 5.746833410330014E-5
80 180 5.1453502167554E-5
81 1 7.278559756945721E-4
81 2 7.328681808464655E-4
81 3 7.429030160686944E-4
81 4 7.579812361583628E-4
81 5 7.781337359394197E-4
81 6 8.034012660583491E-4
81 7 8.338340551267832E-4
81 8 8.694913391621643E-4
81 9 9.104407995447212E-4
81 10 9.567579109947642E-4
81 11 1.0085252013814752E-3
81 12 1.0658314255052406E-3
81 13 1.1287706553519256E-3
81 14 1.1974412897004542E-3
81 15 1.2719449863750829E-3
81 16 1.3523855208706812E-3
81 17 1.4388675755421041E-3
81 18 1.5314954640357147E-3
81 19 1.6303717961497649E-3
81 20 1.6841425866698377E-3
81 21 1.8012462850076334E-3
81 22 1.9243532109863046E-3
81 23 2.0535908952067335E-3
81 24 2.1890743995435897E-3
81 25 2.330904952152349E-3
81 26 2.4791685709596527E-3
81 27 2.633934684342309E-3
81 28 2.795254758291549E-3
81 29 2.9631609399036283E-3
81 30 3.1376647275268414E-3
81 31 3.3187556783199905E-3
81 32 3.5064001643299895E-3
81 33 3.7005401884686075E-3
81 34 3.901092271952699E-3
81 35 4.107946424861764E-3
81 36 4.32096521145483E-3
81 37 4.53998292177005E-3
81 38 4.76480486080035E-3
81 39 4.995206766193312E-3
81 40 5.230934364960887E-3
81 41 5.471703079103E-3
81 42 5.717197889348822E-3
81 43 5.967073365401693E-3
81 44 6.220953870141162E-3
81 45 6.478433944192542E-3
81 46 6.739078876126403E-3
81 47 7.002425462304573E-3
81 48 7.267982959054018E-3
81 49 7.535234228435287E-3
81 50 7.803637077389106E-3
81 51 8.072625788505754E-3
81 52 8.341612839080366E-3
81 53 8.609990803507927E-3
81 54 8.87713443244969E-3
81 55 9.142402900584164E-3
81 56 9.405142213157209E-3
81 57 9.664687759983982E-3
81 58 9.920367004047512E-3
81 59 1.0171502290401539E-2
81 60 1.0417413759735424E-2
81 61 1.0657422349712599E-2
81 62 1.0890852866066733E-2
81 63 1.1117037104445721E-2
81 64 1.1335317003146307E-2
81 65 1.1545047806193727E-2
81 66 1.174560121570136E-2
81 67 1.1936368512104304E-2
81 68 1.211676362070477E-2
81 69 1.2286226103001317E-2
81 70 1.2444224051501605E-2
81 71 1.2590256867140038E-2
81 72 1.2723857899036553E-2
81 73 1.2844596927137332E-2
81 74 1.2952082469266922E-2
81 75 1.3045963895286368E-2
81 76 1.3125933332383884E-2
81 77 1.3191727347011566E-2
81 78 1.3243128390610169E-2
81 79 1.3279965998018756E-2
81 80 1.33021177293305E-2
81 81 1.330950984791183E-2
81 82 1.33021177293305E-2
81 83 1.3279965998018756E-2
81 84 1.3243128390610169E-2
81 85 1.3191727347011566E-2
81 86 1.3125933332383884E-2
81 87 1.3045963895286368E-2
81 88 1.2952082469266922E-2
81 89 1.2844596927137332E-2
81 90 1.2723857899036553E-2
81 91 1.2590256867140038E-2
81 92 1.2444224051501605E-2
81 93 1.2286226103001317E-2
81 94 1.211676362070477E-2
81 95 1.1936368512104304E-2
81 96 1.174560121570136E-2
81 97 1.1545047806193727E-2
81 98 1.1335317003146307E-2
81 99 1.1117037104445721E-2
81 100 1.0890852866066733E-2
81 101 1.0657422349712599E-2
81 102 1.0417413759735424E-2
81 103 1.0171502290401539E-2
81 104 9.920367004047512E-3
81 105 9.664687759983982E-3
81 106 9.405142213157209E-3
81 107 9.142402900584164E-3
81 108 8.87713443244969E-3
81 109 8.609990803507927E-3
81 110 8.341612839080366E-3
81 111 8.072625788505754E-3
81 112 7.803637077389106E-3
81 113 7.535234228435287E-3
81 114 7.267982959054018E-3
81 115 7.002425462304573E-3
81 116 6.739078876126403E-3
81 117 6.478433944192542E-3
81 118 6.220953870141162E-3
81 119 5.967073365401693E-3
81 120 5.717197889348822E-3
81 121 5.471703079103E-3
81 122 5.230934364960887E-3
81 123 4.995206766193312E-3
81 124 4.76480486080035E-3
81 125 4.53998292177005E-3
81 126 4.32096521145483E-3
81 127 4.107946424861764E-3
81 128 3.901092271952699E-3
81 129 3.7005401884686075E-3
81 130 3.5064001643299895E-3
81 131 3.3187556783199905E-3
81 132 3.1376647275268414E-3
81 133 2.9631609399036283E-3
81 134 2.795254758291549E-3
81 135 2.633934684342309E-3
81 136 2.4791685709596527E-3
81 137 2.330904952152349E-3
81 138 2.1890743995435897E-3
81 139 2.0535908952067335E-3
81 140 1.9243532109863046E-3
81 141 1.8012462850076334E-3
81 142 1.6841425866698377E-3
81 143 1.5729034620464647E-3
81 144 1.4673804522774983E-3
81 145 1.367416578217387E-3
81 146 1.2728475852982531E-3
81 147 1.183503143267951E-3
81 148 1.0992079961619481E-3
81 149 1.0197830585595082E-3
81 150 9.450464548521614E-4
81 151 8.748144989104668E-4
81 152 8.089026121686099E-4
81 153 7.471261787510978E-4
81 154 6.893013368380249E-4
81 155 6.352457060019391E-4
81 156 5.847790507477894E-4
81 157 5.377238809458774E-4
81 158 4.939059902648149E-4
81 159 4.531549340864822E-4
81 160 4.153044487175457E-4
81 161 3.801928140025063E-4
81 162 3.4766316169206583E-4
81 163 3.175637321289198E-4
81 164 2.8974808198221224E-4
81 165 2.64075245893548E-4
81 166 2.404098549935424E-4
81 167 2.186222153105597E-4
81 168 1.9858834912484408E-4
81 169 1.801900023241393E-4
81 170 1.6331462079362345E-4
81 171 1.478552988261544E-4
81 172 1.3371070247100844E-4
81 173 1.2078497065307907E-4
81 174 1.0898759679241744E-4
81 175 9.8233293538506E-5
81 176 8.844184310713185E-5
81 177 7.953793557242816E-5
81 178 7.145099732471724E-5
81 179 6.41150117582164E-5
81 180 5.746833410330014E-5
81 181 5.1453502167554E-5
82 1 6.652268938209856E-4
82 2 6.699408959847185E-4
82 3 6.793796946110937E-4
82 4 6.935647890800247E-4
82 5 7.125282055753746E-4
82 6 7.363122300707214E-4
82 7 7.649690530719287E-4
82 8 7.985603267955625E-4
82 9 8.371566356641793E-4
82 10 8.808368812221062E-4
82 11 9.296875828216889E-4
82 12 9.838020957028842E-4
82 13 1.0432797483906674E-3
82 14 1.10822490166664E-3
82 15 1.1787459317343762E-3
82 16 1.2549541405926681E-3
82 17 1.3369625970564695E-3
82 18 1.424884912320687E-3
82 19 1.4673804522774983E-3
82 20 1.5729034620464647E-3
82 21 1.6841425866698377E-3
82 22 1.8012462850076334E-3
82 23 1.9243532109863046E-3
82 24 2.0535908952067335E-3
82 25 2.1890743995435897E-3
82 26 2.330904952152349E-3
82 27 2.4791685709596527E-3
82 28 2.633934684342309E-3
82 29 2.795254758291549E-3
82 30 2.9631609399036283E-3
82 31 3.1376647275268414E-3
82 32 3.3187556783199905E-3
82 33 3.5064001643299895E-3
82 34 3.7005401884686075E-3
82 35 3.901092271952699E-3
82 36 4.107946424861764E-3
82 37 4.32096521145483E-3
82 38 4.53998292177005E-3
82 39 4.76480486080035E-3
82 40 4.995206766193312E-3
82 41 5.230934364960887E-3
82 42 5.471703079103E-3
82 43 5.717197889348822E-3
82 44 5.967073365401693E-3
82 45 6.220953870141162E-3
82 46 6.478433944192542E-3
82 47 6.739078876126403E-3
82 48 7.002425462304573E-3
82 49 7.267982959054018E-3
82 50 7.535234228435287E-3
82 51 7.803637077389106E-3
82 52 8.072625788505754E-3
82 53 8.341612839080366E-3
82 54 8.609990803507927E-3
82 55 8.87713443244969E-3
82 56 9.142402900584164E-3
82 57 9.405142213157209E-3
82 58 9.664687759983982E-3
82 59 9.920367004047512E-3
82 60 1.0171502290401539E-2
82 61 1.0417413759735424E-2
82 62 1.0657422349712599E-2
82 63 1.0890852866066733E-2
82 64 1.1117037104445721E-2
82 65 1.1335317003146307E-2
82 66 1.1545047806193727E-2
82 67 1.174560121570136E-2
82 68 1.1936368512104304E-2
82 69 1.211676362070477E-2
82 70 1.2286226103001317E-2
82 71 1.2444224051501605E-2
82 72 1.2590256867140038E-2
82 73 1.2723857899036553E-2
82 74 1.2844596927137332E-2
82 75 1.2952082469266922E-2
82 76 1.3045963895286368E-2
82 77 1.3125933332383884E-2
82 78 1.3191727347011566E-2
82 79 1.3243128390610169E-2
82 80 1.3279965998018756E-2
82 81 1.33021177293305E-2
82 82 1.330950984791183E-2
82 83 1.33021177293305E-2
82 84 1.3279965998018756E-2
82 85 1.3243128390610169E-2
82 86 1.3191727347011566E-2
82 87 1.3125933332383884E-2
82 88 1.3045963895286368E-2
82 89 1.2952082469266922E-2
82 90 1.2844596927137332E-2
82 91 1.2723857899036553E-2
82 92 1.2590256867140038E-2
82 93 1.2444224051501605E-2
82 94 1.2286226103001317E-2
82 95 1.211676362070477E-2
82 96 1.1936368512104304E-2
82 97 1.174560121570136E-2
82 98 1.1545047806193727E-2
82 99 1.1335317003146307E-2
82 100 1.1117037104445721E-2
82 101 1.0890852866066733E-2
82 102 1.0657422349712599E-2
82 103 1.0417413759735424E-2
82 104 1.0171502290401539E-2
82 105 9.920367004047512E-3
82 106 9.664687759983982E-3
82 107 9.405142213157209E-3
82 108 9.142402900584164E-3
82 109 8.87713443244969E-3
82 110 8.609990803507927E-3
82 111 8.341612839080366E-3
82 112 8.072625788505754E-3
82 113 7.803637077389106E-3
82 114 7.535234228435287E-3
82 115 7.267982959054018E-3
82 116 7.002425462304573E-3
82 117 6.739078876126403E-3
82 118 6.478433944192542E-3
82 119 6.220953870141162E-3
82 120 5.967073365401693E-3
82 121 5.717197889348822E-3
82 122 5.471703079103E-3
82 123 5.230934364960887E-3
82 124 4.995206766193312E-3
82 125 4.76480486080035E-3
82 126 4.53998292177005E-3
82 127 4.32096521145483E-3
82 128 4.107946424861764E-3
82 129 3.901092271952699E-3
82 130 3.7005401884686075E-3
82 131 3.5064001643299895E-3
82 132 3.3187556783199905E-3
82 133 3.1376647275268414E-3
82 134 2.9631609399036283E-3
82 135 2.795254758291549E-3
82 136 2.633934684342309E-3
82 137 2.4791685709596527E-3
82 138 2.330904952152349E-3
82 139 2.1890743995435897E-3
82 140 2.0535908952067335E-3
82 141 1.9243532109863046E-3
82 142 1.8012462850076334E-3
82 143 1.6841425866698377E-3
82 144 1.5729034620464647E-3
82 145 1.4673804522774983E-3
82 146 1.367416578217387E-3
82 147 1.2728475852982531E-3
82 148 1.183503143267951E-3
82 149 1.0992079961619481E-3
82 150 1.0197830585595082E-3
82 151 9.450464548521614E-4
82 152 8.748144989104668E-4
82 153 8.089026121686099E-4
82 154 7.471261787510978E-4
82 155 6.893013368380249E-4
82 156 6.352457060019391E-4
82 157 5.847790507477894E-4
82 158 5.377238809458774E-4
82 159 4.939059902648149E-4
82 160 4.531549340864822E-4
82 161 4.153044487175457E-4
82 162 3.801928140025063E-4
82 163 3.4766316169206583E-4
82 164 3.175637321289198E-4
82 165 2.8974808198221224E-4
82 166 2.64075245893548E-4
82 167 2.404098549935424E-4
82 168 2.186222153105597E-4
82 169 1.9858834912484408E-4
82 170 1.801900023241393E-4
82 171 1.6331462079362345E-4
82 172 1.478552988261544E-4
82 173 1.3371070247100844E-4
82 174 1.2078497065307907E-4
82 175 1.0898759679241744E-4
82 176 9.8233293538506E-5
82 177 8.844184310713185E-5
82 178 7.953793557242816E-5
82 179 7.145099732471724E-5
82 180 6.41150117582164E-5
82 181 5.746833410330014E-5
82 182 5.1453502167554E-5
83 1 6.07311814111132E-4
83 2 6.117384075856138E-4
83 3 6.206026689960487E-4
83 4 6.339266640281054E-4
83 5 6.517432832113263E-4
83 6 6.740959925889542E-4
83 7 7.010385017395008E-4
83 8 7.326343495739438E-4
83 9 7.689564084729475E-4
83 10 8.10086307491104E-4
83 11 8.561137755435152E-4
83 12 9.071359057071159E-4
83 13 9.632563420175986E-4
83 14 1.0245843904245896E-3
83 15 1.0912340558842254E-3
83 16 1.1633230079201645E-3
83 17 1.240971477371251E-3
83 18 1.2728475852982531E-3
83 19 1.367416578217387E-3
83 20 1.4673804522774983E-3
83 21 1.5729034620464647E-3
83 22 1.6841425866698377E-3
83 23 1.8012462850076334E-3
83 24 1.9243532109863046E-3
83 25 2.0535908952067335E-3
83 26 2.1890743995435897E-3
83 27 2.330904952152349E-3
83 28 2.4791685709596527E-3
83 29 2.633934684342309E-3
83 30 2.795254758291549E-3
83 31 2.9631609399036283E-3
83 32 3.1376647275268414E-3
83 33 3.3187556783199905E-3
83 34 3.5064001643299895E-3
83 35 3.7005401884686075E-3
83 36 3.901092271952699E-3
83 37 4.107946424861764E-3
83 38 4.32096521145483E-3
83 39 4.53998292177005E-3
83 40 4.76480486080035E-3
83 41 4.995206766193312E-3
83 42 5.230934364960887E-3
83 43 5.471703079103E-3
83 44 5.717197889348822E-3
83 45 5.967073365401693E-3
83 46 6.220953870141162E-3
83 47 6.478433944192542E-3
83 48 6.739078876126403E-3
83 49 7.002425462304573E-3
83 50 7.267982959054018E-3
83 51 7.535234228435287E-3
83 52 7.803637077389106E-3
83 53 8.072625788505754E-3
83 54 8.341612839080366E-3
83 55 8.609990803507927E-3
83 56 8.87713443244969E-3
83 57 9.142402900584164E-3
83 58 9.405142213157209E-3
83 59 9.664687759983982E-3
83 60 9.920367004047512E-3
83 61 1.0171502290401539E-2
83 62 1.0417413759735424E-2
83 63 1.0657422349712599E-2
83 64 1.0890852866066733E-2
83 65 1.1117037104445721E-2
83 66 1.1335317003146307E-2
83 67 1.1545047806193727E-2
83 68 1.174560121570136E-2
83 69 1.1936368512104304E-2
83 70 1.211676362070477E-2
83 71 1.2286226103001317E-2
83 72 1.2444224051501605E-2
83 73 1.2590256867140038E-2
83 74 1.2723857899036553E-2
83 75 1.2844596927137332E-2
83 76 1.2952082469266922E-2
83 77 1.3045963895286368E-2
83 78 1.3125933332383884E-2
83 79 1.3191727347011566E-2
83 80 1.3243128390610169E-2
83 81 1.3279965998018756E-2
83 82 1.33021177293305E-2
83 83 1.330950984791183E-2
83 84 1.33021177293305E-2
83 85 1.3279965998018756E-2
83 86 1.3243128390610169E-2
83 87 1.3191727347011566E-2
83 88 1.3125933332383884E-2
83 89 1.3045963895286368E-2
83 90 1.2952082469266922E-2
83 91 1.2844596927137332E-2
83 92 1.2723857899036553E-2
83 93 1.2590256867140038E-2
83 94 1.2444224051501605E-2
83 95 1.2286226103001317E-2
83 96 1.211676362070477E-2
83 97 1.1936368512104304E-2
83 98 1.174560121570136E-2
83 99 1.1545047806193727E-2
83 100 1.1335317003146307E-2
83 101 1.1117037104445721E-2
83 102 1.0890852866066733E-2
83 103 1.0657422349712599E-2
83 104 1.0417413759735424E-2
83 105 1.0171502290401539E-2
83 106 9.920367004047512E-3
83 107 9.664687759983982E-3
83 108 9.405142213157209E-3
83 109 9.142402900584164E-3
83 110 8.87713443244969E-3
83 111 8.609990803507927E-3
83 112 8.341612839080366E-3
83 113 8.072625788505754E-3
83 114 7.803637077389106E-3
83 115 7.535234228435287E-3
83 116 7.267982959054018E-3
83 117 7.002425462304573E-3
83 118 6.739078876126403E-3
83 119 6.478433944192542E-3
83 120 6.220953870141162E-3
83 121 5.967073365401693E-3
83 122 5.717197889348822E-3
83 123 5.471703079103E-3
83 124 5.230934364960887E-3
83 125 4.995206766193312E-3
83 126 4.76480486080035E-3
83 127 4.53998292177005E-3
83 128 4.32096521145483E-3
83 129 4.107946424861764E-3
83 130 3.901092271952699E-3
83 131 3.7005401884686075E-3
83 132 3.5064001643299895E-3
83 133 3.3187556783199905E-3
83 134 3.1376647275268414E-3
83 135 2.9631609399036283E-3
83 136 2.795254758291549E-3
83 137 2.633934684342309E-3
83 138 2.4791685709596527E-3
83 139 2.330904952152349E-3
83 140 2.1890743995435897E-3
83 141 2.0535908952067335E-3
83 142 1.9243532109863046E-3
83 143 1.8012462850076334E-3
83 144 1.6841425866698377E-3
83 145 1.5729034620464647E-3
83 146 1.4673804522774983E-3
83 147 1.367416578217387E-3
83 148 1.2728475852982531E-3
83 149 1.183503143267951E-3
83 150 1.0992079961619481E-3
83 151 1.0197830585595082E-3
83 152 9.450464548521614E-4
83 153 8.748144989104668E-4
83 154 8.089026121686099E-4
83 155 7.471261787510978E-4
83 156 6.893013368380249E-4
83 157 6.352457060019391E-4
83 158 5.847790507477894E-4
83 159 5.377238809458774E-4
83 160 4.939059902648149E-4
83 161 4.531549340864822E-4
83 162 4.153044487175457E-4
83 163 3.801928140025063E-4
83 164 3.4766316169206583E-4
83 165 3.175637321289198E-4
83 166 2.8974808198221224E-4
83 167 2.64075245893548E-4
83 168 2.404098549935424E-4
83 169 2.186222153105597E-4
83 170 1.9858834912484408E-4
83 171 1.801900023241393E-4
83 172 1.6331462079362345E-4
83 173 1.478552988261544E-4
83 174 1.3371070247100844E-4
83 175 1.2078497065307907E-4
83 176 1.0898759679241744E-4
83 177 9.8233293538506E-5
83 178 8.844184310713185E-5
83 179 7.953793557242816E-5
83 180 7.145099732471724E-5
83 181 6.41150117582164E-5
83 182 5.746833410330014E-5
83 183 5.1453502167554E-5
84 1 5.538233278757602E-4
84 2 5.579735871224622E-4
84 3 5.662853770026255E-4
84 4 5.787811631273504E-4
84 5 5.95494451041685E-4
84 6 6.164695548801056E-4
84 7 6.417612890909693E-4
84 8 6.714345834168858E-4
84 9 7.055640214008685E-4
84 10 7.442333027943565E-4
84 11 7.875346303765309E-4
84 12 8.355680218582296E-4
84 13 8.884405477410381E-4
84 14 9.46265496235184E-4
84 15 1.009161466610378E-3
84 16 1.0772513926628083E-3
84 17 1.0992079961619481E-3
84 18 1.183503143267951E-3
84 19 1.2728475852982531E-3
84 20 1.367416578217387E-3
84 21 1.4673804522774983E-3
84 22 1.5729034620464647E-3
84 23 1.6841425866698377E-3
84 24 1.8012462850076334E-3
84 25 1.9243532109863046E-3
84 26 2.0535908952067335E-3
84 27 2.1890743995435897E-3
84 28 2.330904952152349E-3
84 29 2.4791685709596527E-3
84 30 2.633934684342309E-3
84 31 2.795254758291549E-3
84 32 2.9631609399036283E-3
84 33 3.1376647275268414E-3
84 34 3.3187556783199905E-3
84 35 3.5064001643299895E-3
84 36 3.7005401884686075E-3
84 37 3.901092271952699E-3
84 38 4.107946424861764E-3
84 39 4.32096521145483E-3
84 40 4.53998292177005E-3
84 41 4.76480486080035E-3
84 42 4.995206766193312E-3
84 43 5.230934364960887E-3
84 44 5.471703079103E-3
84 45 5.717197889348822E-3
84 46 5.967073365401693E-3
84 47 6.220953870141162E-3
84 48 6.478433944192542E-3
84 49 6.739078876126403E-3
84 50 7.002425462304573E-3
84 51 7.267982959054018E-3
84 52 7.535234228435287E-3
84 53 7.803637077389106E-3
84 54 8.072625788505754E-3
84 55 8.341612839080366E-3
84 56 8.609990803507927E-3
84 57 8.87713443244969E-3
84 58 9.142402900584164E-3
84 59 9.405142213157209E-3
84 60 9.664687759983982E-3
84 61 9.920367004047512E-3
84 62 1.0171502290401539E-2
84 63 1.0417413759735424E-2
84 64 1.0657422349712599E-2
84 65 1.0890852866066733E-2
84 66 1.1117037104445721E-2
84 67 1.1335317003146307E-2
84 68 1.1545047806193727E-2
84 69 1.174560121570136E-2
84 70 1.1936368512104304E-2
84 71 1.211676362070477E-2
84 72 1.2286226103001317E-2
84 73 1.2444224051501605E-2
84 74 1.2590256867140038E-2
84 75 1.2723857899036553E-2
84 76 1.2844596927137332E-2
84 77 1.2952082469266922E-2
84 78 1.3045963895286368E-2
84 79 1.3125933332383884E-2
84 80 1.3191727347011566E-2
84 81 1.3243128390610169E-2
84 82 1.3279965998018756E-2
84 83 1.33021177293305E-2
84 84 1.330950984791183E-2
84 85 1.33021177293305E-2
84 86 1.3279965998018756E-2
84 87 1.3243128390610169E-2
84 88 1.3191727347011566E-2
84 89 1.3125933332383884E-2
84 90 1.3045963895286368E-2
84 91 1.2952082469266922E-2
84 92 1.2844596927137332E-2
84 93 1.2723857899036553E-2
84 94 1.2590256867140038E-2
84 95 1.2444224051501605E-2
84 96 1.2286226103001317E-2
84 97 1.211676362070477E-2
84 98 1.1936368512104304E-2
84 99 1.174560121570136E-2
84 100 1.1545047806193727E-2
84 101 1.1335317003146307E-2
84 102 1.1117037104445721E-2
84 103 1.0890852866066733E-2
84 104 1.0657422349712599E-2
84 105 1.0417413759735424E-2
84 106 1.0171502290401539E-2
84 107 9.920367004047512E-3
84 108 9.664687759983982E-3
84 109 9.405142213157209E-3
84 110 9.142402900584164E-3
84 111 8.87713443244969E-3
84 112 8.609990803507927E-3
84 113 8.341612839080366E-3
84 114 8.072625788505754E-3
84 115 7.803637077389106E-3
84 116 7.535234228435287E-3
84 117 7.267982959054018E-3
84 118 7.002425462304573E-3
84 119 6.739078876126403E-3
84 120 6.478433944192542E-3
84 121 6.220953870141162E-3
84 122 5.967073365401693E-3
84 123 5.717197889348822E-3
84 124 5.471703079103E-3
84 125 5.230934364960887E-3
84 126 4.995206766193312E-3
84 127 4.76480486080035E-3
84 128 4.53998292177005E-3
84 129 4.32096521145483E-3
84 130 4.107946424861764E-3
84 131 3.901092271952699E-3
84 132 3.7005401884686075E-3
84 133 3.5064001643299895E-3
84 134 3.3187556783199905E-3
84 135 3.1376647275268414E-3
84 136 2.9631609399036283E-3
84 137 2.795254758291549E-3
84 138 2.633934684342309E-3
84 139 2.4791685709596527E-3
84 140 2.330904952152349E-3
84 141 2.1890743995435897E-3
84 142 2.0535908952067335E-3
84 143 1.9243532109863046E-3
84 144 1.8012462850076334E-3
84 145 1.6841425866698377E-3
84 146 1.5729034620464647E-3
84 147 1.4673804522774983E-3
84 148 1.367416578217387E-3
84 149 1.2728475852982531E-3
84 150 1.183503143267951E-3
84 151 1.0992079961619481E-3
84 152 1.0197830585595082E-3
84 153 9.450464548521614E-4
84 154 8.748144989104668E-4
84 155 8.089026121686099E-4
84 156 7.471261787510978E-4
84 157 6.893013368380249E-4
84 158 6.352457060019391E-4
84 159 5.847790507477894E-4
84 160 5.377238809458774E-4
84 161 4.939059902648149E-4
84 162 4.531549340864822E-4
84 163 4.153044487175457E-4
84 164 3.801928140025063E-4
84 165 3.4766316169206583E-4
84 166 3.175637321289198E-4
84 167 2.8974808198221224E-4
84 168 2.64075245893548E-4
84 169 2.404098549935424E-4
84 170 2.186222153105597E-4
84 171 1.9858834912484408E-4
84 172 1.801900023241393E-4
84 173 1.6331462079362345E-4
84 174 1.478552988261544E-4
84 175 1.3371070247100844E-4
84 176 1.2078497065307907E-4
84 177 1.0898759679241744E-4
84 178 9.8233293538506E-5
84 179 8.844184310713185E-5
84 180 7.953793557242816E-5
84 181 7.145099732471724E-5
84 182 6.41150117582164E-5
84 183 5.746833410330014E-5
84 184 5.1453502167554E-5
85 1 5.044851008870904E-4
85 2 5.08370297292772E-4
85 3 5.161520812537639E-4
85 4 5.278531640162051E-4
85 5 5.435074347961298E-4
85 6 5.631597475437002E-4
85 7 5.868656365574906E-4
85 8 6.14690960917894E-4
85 9 6.467114777382948E-4
85 10 6.830123442862954E-4
85 11 7.236875491090709E-4
85 12 7.688392724104531E-4
85 13 8.18577176075815E-4
85 14 8.730176239268262E-4
85 15 9.322828330137669E-4
85 16 9.450464548521614E-4
85 17 1.0197830585595082E-3
85 18 1.0992079961619481E-3
85 19 1.183503143267951E-3
85 20 1.2728475852982531E-3
85 21 1.367416578217387E-3
85 22 1.4673804522774983E-3
85 23 1.5729034620464647E-3
85 24 1.6841425866698377E-3
85 25 1.8012462850076334E-3
85 26 1.9243532109863046E-3
85 27 2.0535908952067335E-3
85 28 2.1890743995435897E-3
85 29 2.330904952152349E-3
85 30 2.4791685709596527E-3
85 31 2.633934684342309E-3
85 32 2.795254758291549E-3
85 33 2.9631609399036283E-3
85 34 3.1376647275268414E-3
85 35 3.3187556783199905E-3
85 36 3.5064001643299895E-3
85 37 3.7005401884686075E-3
85 38 3.901092271952699E-3
85 39 4.107946424861764E-3
85 40 4.32096521145483E-3
85 41 4.53998292177005E-3
85 42 4.76480486080035E-3
85 43 4.995206766193312E-3
85 44 5.230934364960887E-3
85 45 5.471703079103E-3
85 46 5.717197889348822E-3
85 47 5.967073365401693E-3
85 48 6.220953870141162E-3
85 49 6.478433944192542E-3
85 50 6.739078876126403E-3
85 51 7.002425462304573E-3
85 52 7.267982959054018E-3
85 53 7.535234228435287E-3
85 54 7.803637077389106E-3
85 55 8.072625788505754E-3
85 56 8.341612839080366E-3
85 57 8.609990803507927E-3
85 58 8.87713443244969E-3
85 59 9.142402900584164E-3
85 60 9.405142213157209E-3
85 61 9.664687759983982E-3
85 62 9.920367004047512E-3
85 63 1.0171502290401539E-2
85 64 1.0417413759735424E-2
85 65 1.0657422349712599E-2
85 66 1.0890852866066733E-2
85 67 1.1117037104445721E-2
85 68 1.1335317003146307E-2
85 69 1.1545047806193727E-2
85 70 1.174560121570136E-2
85 71 1.1936368512104304E-2
85 72 1.211676362070477E-2
85 73 1.2286226103001317E-2
85 74 1.2444224051501605E-2
85 75 1.2590256867140038E-2
85 76 1.2723857899036553E-2
85 77 1.2844596927137332E-2
85 78 1.2952082469266922E-2
85 79 1.3045963895286368E-2
85 80 1.3125933332383884E-2
85 81 1.3191727347011566E-2
85 82 1.3243128390610169E-2
85 83 1.3279965998018756E-2
85 84 1.33021177293305E-2
85 85 1.330950984791183E-2
85 86 1.33021177293305E-2
85 87 1.3279965998018756E-2
85 88 1.3243128390610169E-2
85 89 1.3191727347011566E-2
85 90 1.3125933332383884E-2
85 91 1.3045963895286368E-2
85 92 1.2952082469266922E-2
85 93 1.2844596927137332E-2
85 94 1.2723857899036553E-2
85 95 1.2590256867140038E-2
85 96 1.2444224051501605E-2
85 97 1.2286226103001317E-2
85 98 1.211676362070477E-2
85 99 1.1936368512104304E-2
85 100 1.174560121570136E-2
85 101 1.1545047806193727E-2
85 102 1.1335317003146307E-2
85 103 1.1117037104445721E-2
85 104 1.0890852866066733E-2
85 105 1.0657422349712599E-2
85 106 1.0417413759735424E-2
85 107 1.0171502290401539E-2
85 108 9.920367004047512E-3
85 109 9.664687759983982E-3
85 110 9.405142213157209E-3
85 111 9.142402900584164E-3
85 112 8.87713443244969E-3
85 113 8.609990803507927E-3
85 114 8.341612839080366E-3
85 115 8.072625788505754E-3
85 116 7.803637077389106E-3
85 117 7.535234228435287E-3
85 118 7.267982959054018E-3
85 119 7.002425462304573E-3
85 120 6.739078876126403E-3
85 121 6.478433944192542E-3
85 122 6.220953870141162E-3
85 123 5.967073365401693E-3
85 124 5.717197889348822E-3
85 125 5.471703079103E-3
85 126 5.230934364960887E-3
85 127 4.995206766193312E-3
85 128 4.76480486080035E-3
85 129 4.53998292177005E-3
85 130 4.32096521145483E-3
85 131 4.107946424861764E-3
85 132 3.901092271952699E-3
85 133 3.7005401884686075E-3
85 134 3.5064001643299895E-3
85 135 3.3187556783199905E-3
85 136 3.1376647275268414E-3
85 137 2.9631609399036283E-3
85 138 2.795254758291549E-3
85 139 2.633934684342309E-3
85 140 2.4791685709596527E-3
85 141 2.330904952152349E-3
85 142 2.1890743995435897E-3
85 143 2.0535908952067335E-3
85 144 1.9243532109863046E-3
85 145 1.8012462850076334E-3
85 146 1.6841425866698377E-3
85 147 1.5729034620464647E-3
85 148 1.4673804522774983E-3
85 149 1.367416578217387E-3
85 150 1.2728475852982531E-3
85 151 1.183503143267951E-3
85 152 1.0992079961619481E-3
85 153 1.0197830585595082E-3
85 154 9.450464548521614E-4
85 155 8.748144989104668E-4
85 156 8.089026121686099E-4
85 157 7.471261787510978E-4
85 158 6.893013368380249E-4
85 159 6.352457060019391E-4
85 160 5.847790507477894E-4
85 161 5.377238809458774E-4
85 162 4.939059902648149E-4
85 163 4.531549340864822E-4
85 164 4.153044487175457E-4
85 165 3.801928140025063E-4
85 166 3.4766316169206583E-4
85 167 3.175637321289198E-4
85 168 2.8974808198221224E-4
85 169 2.64075245893548E-4
85 170 2.404098549935424E-4
85 171 2.186222153105597E-4
85 172 1.9858834912484408E-4
85 173 1.801900023241393E-4
85 174 1.6331462079362345E-4
85 175 1.478552988261544E-4
85 176 1.3371070247100844E-4
85 177 1.2078497065307907E-4
85 178 1.0898759679241744E-4
85 179 9.8233293538506E-5
85 180 8.844184310713185E-5
85 181 7.953793557242816E-5
85 182 7.145099732471724E-5
85 183 6.41150117582164E-5
85 184 5.746833410330014E-5
85 185 5.1453502167554E-5
86 1 4.590320703041021E-4
86 2 4.626635950183921E-4
86 3 4.6993808430635154E-4
86 4 4.8087835292254325E-4
86 5 4.955184605182203E-4
86 6 5.139035164735148E-4
86 7 5.360894193706248E-4
86 8 5.621425308788996E-4
86 9 5.921392838033209E-4
86 10 6.261657240530092E-4
86 11 6.643169863202176E-4
86 12 7.066967033266563E-4
86 13 7.534163485962413E-4
86 14 8.045945128543979E-4
86 15 8.089026121686099E-4
86 16 8.748144989104668E-4
86 17 9.450464548521614E-4
86 18 1.0197830585595082E-3
86 19 1.0992079961619481E-3
86 20 1.183503143267951E-3
86 21 1.2728475852982531E-3
86 22 1.367416578217387E-3
86 23 1.4673804522774983E-3
86 24 1.5729034620464647E-3
86 25 1.6841425866698377E-3
86 26 1.8012462850076334E-3
86 27 1.9243532109863046E-3
86 28 2.0535908952067335E-3
86 29 2.1890743995435897E-3
86 30 2.330904952152349E-3
86 31 2.4791685709596527E-3
86 32 2.633934684342309E-3
86 33 2.795254758291549E-3
86 34 2.9631609399036283E-3
86 35 3.1376647275268414E-3
86 36 3.3187556783199905E-3
86 37 3.5064001643299895E-3
86 38 3.7005401884686075E-3
86 39 3.901092271952699E-3
86 40 4.107946424861764E-3
86 41 4.32096521145483E-3
86 42 4.53998292177005E-3
86 43 4.76480486080035E-3
86 44 4.995206766193312E-3
86 45 5.230934364960887E-3
86 46 5.471703079103E-3
86 47 5.717197889348822E-3
86 48 5.967073365401693E-3
86 49 6.220953870141162E-3
86 50 6.478433944192542E-3
86 51 6.739078876126403E-3
86 52 7.002425462304573E-3
86 53 7.267982959054018E-3
86 54 7.535234228435287E-3
86 55 7.803637077389106E-3
86 56 8.072625788505754E-3
86 57 8.341612839080366E-3
86 58 8.609990803507927E-3
86 59 8.87713443244969E-3
86 60 9.142402900584164E-3
86 61 9.405142213157209E-3
86 62 9.664687759983982E-3
86 63 9.920367004047512E-3
86 64 1.0171502290401539E-2
86 65 1.0417413759735424E-2
86 66 1.0657422349712599E-2
86 67 1.0890852866066733E-2
86 68 1.1117037104445721E-2
86 69 1.1335317003146307E-2
86 70 1.1545047806193727E-2
86 71 1.174560121570136E-2
86 72 1.1936368512104304E-2
86 73 1.211676362070477E-2
86 74 1.2286226103001317E-2
86 75 1.2444224051501605E-2
86 76 1.2590256867140038E-2
86 77 1.2723857899036553E-2
86 78 1.2844596927137332E-2
86 79 1.2952082469266922E-2
86 80 1.3045963895286368E-2
86 81 1.3125933332383884E-2
86 82 1.3191727347011566E-2
86 83 1.3243128390610169E-2
86 84 1.3279965998018756E-2
86 85 1.33021177293305E-2
86 86 1.330950984791183E-2
86 87 1.33021177293305E-2
86 88 1.3279965998018756E-2
86 89 1.3243128390610169E-2
86 90 1.3191727347011566E-2
86 91 1.3125933332383884E-2
86 92 1.3045963895286368E-2
86 93 1.2952082469266922E-2
86 94 1.2844596927137332E-2
86 95 1.2723857899036553E-2
86 96 1.2590256867140038E-2
86 97 1.2444224051501605E-2
86 98 1.2286226103001317E-2
86 99 1.211676362070477E-2
86 100 1.1936368512104304E-2
86 101 1.174560121570136E-2
86 102 1.1545047806193727E-2
86 103 1.1335317003146307E-2
86 104 1.1117037104445721E-2
86 105 1.0890852866066733E-2
86 106 1.0657422349712599E-2
86 107 1.0417413759735424E-2
86 108 1.0171502290401539E-2
86 109 9.920367004047512E-3
86 110 9.664687759983982E-3
86 111 9.405142213157209E-3
86 112 9.142402900584164E-3
86 113 8.87713443244969E-3
86 114 8.609990803507927E-3
86 115 8.341612839080366E-3
86 116 8.072625788505754E-3
86 117 7.803637077389106E-3
86 118 7.535234228435287E-3
86 119 7.267982959054018E-3
86 120 7.002425462304573E-3
86 121 6.739078876126403E-3
86 122 6.478433944192542E-3
86 123 6.220953870141162E-3
86 124 5.967073365401693E-3
86 125 5.717197889348822E-3
86 126 5.471703079103E-3
86 127 5.230934364960887E-3
86 128 4.995206766193312E-3
86 129 4.76480486080035E-3
86 130 4.53998292177005E-3
86 131 4.32096521145483E-3
86 132 4.107946424861764E-3
86 133 3.901092271952699E-3
86 134 3.7005401884686075E-3
86 135 3.5064001643299895E-3
86 136 3.3187556783199905E-3
86 137 3.1376647275268414E-3
86 138 2.9631609399036283E-3
86 139 2.795254758291549E-3
86 140 2.633934684342309E-3
86 141 2.4791685709596527E-3
86 142 2.330904952152349E-3
86 143 2.1890743995435897E-3
86 144 2.0535908952067335E-3
86 145 1.9243532109863046E-3
86 146 1.8012462850076334E-3
86 147 1.6841425866698377E-3
86 148 1.5729034620464647E-3
86 149 1.4673804522774983E-3
86 150 1.367416578217387E-3
86 151 1.2728475852982531E-3
86 152 1.183503143267951E-3
86 153 1.0992079961619481E-3
86 154 1.0197830585595082E-3
86 155 9.450464548521614E-4
86 156 8.748144989104668E-4
86 157 8.089026121686099E-4
86 158 7.471261787510978E-4
86 159 6.893013368380249E-4
86 160 6.352457060019391E-4
86 161 5.847790507477894E-4
86 162 5.377238809458774E-4
86 163 4.939059902648149E-4
86 164 4.531549340864822E-4
86 165 4.153044487175457E-4
86 166 3.801928140025063E-4
86 167 3.4766316169206583E-4
86 168 3.175637321289198E-4
86 169 2.8974808198221224E-4
86 170 2.64075245893548E-4
86 171 2.404098549935424E-4
86 172 2.186222153105597E-4
86 173 1.9858834912484408E-4
86 174 1.801900023241393E-4
86 175 1.6331462079362345E-4
86 176 1.478552988261544E-4
86 177 1.3371070247100844E-4
86 178 1.2078497065307907E-4
86 179 1.0898759679241744E-4
86 180 9.8233293538506E-5
86 181 8.844184310713185E-5
86 182 7.953793557242816E-5
86 183 7.145099732471724E-5
86 184 6.41150117582164E-5
86 185 5.746833410330014E-5
86 186 5.1453502167554E-5
87 1 4.172105644354038E-4
87 2 4.205998573176817E-4
87 3 4.2738986668717144E-4
87 4 4.3760338080836667E-4
87 5 4.5127443459992825E-4
87 6 4.6844813234514493E-4
87 7 4.891804107949238E-4
87 8 5.135377422560518E-4
87 9 5.41596777193614E-4
87 10 5.734439258372431E-4
87 11 6.091748782705946E-4
87 12 6.488940625060058E-4
87 13 6.927140401052392E-4
87 14 6.893013368380249E-4
87 15 7.471261787510978E-4
87 16 8.089026121686099E-4
87 17 8.748144989104668E-4
87 18 9.450464548521614E-4
87 19 1.0197830585595082E-3
87 20 1.0992079961619481E-3
87 21 1.183503143267951E-3
87 22 1.2728475852982531E-3
87 23 1.367416578217387E-3
87 24 1.4673804522774983E-3
87 25 1.5729034620464647E-3
87 26 1.6841425866698377E-3
87 27 1.8012462850076334E-3
87 28 1.9243532109863046E-3
87 29 2.0535908952067335E-3
87 30 2.1890743995435897E-3
87 31 2.330904952152349E-3
87 32 2.4791685709596527E-3
87 33 2.633934684342309E-3
87 34 2.795254758291549E-3
87 35 2.9631609399036283E-3
87 36 3.1376647275268414E-3
87 37 3.3187556783199905E-3
87 38 3.5064001643299895E-3
87 39 3.7005401884686075E-3
87 40 3.901092271952699E-3
87 41 4.107946424861764E-3
87 42 4.32096521145483E-3
87 43 4.53998292177005E-3
87 44 4.76480486080035E-3
87 45 4.995206766193312E-3
87 46 5.230934364960887E-3
87 47 5.471703079103E-3
87 48 5.717197889348822E-3
87 49 5.967073365401693E-3
87 50 6.220953870141162E-3
87 51 6.478433944192542E-3
87 52 6.739078876126403E-3
87 53 7.002425462304573E-3
87 54 7.267982959054018E-3
87 55 7.535234228435287E-3
87 56 7.803637077389106E-3
87 57 8.072625788505754E-3
87 58 8.341612839080366E-3
87 59 8.609990803507927E-3
87 60 8.87713443244969E-3
87 61 9.142402900584164E-3
87 62 9.405142213157209E-3
87 63 9.664687759983982E-3
87 64 9.920367004047512E-3
87 65 1.0171502290401539E-2
87 66 1.0417413759735424E-2
87 67 1.0657422349712599E-2
87 68 1.0890852866066733E-2
87 69 1.1117037104445721E-2
87 70 1.1335317003146307E-2
87 71 1.1545047806193727E-2
87 72 1.174560121570136E-2
87 73 1.1936368512104304E-2
87 74 1.211676362070477E-2
87 75 1.2286226103001317E-2
87 76 1.2444224051501605E-2
87 77 1.2590256867140038E-2
87 78 1.2723857899036553E-2
87 79 1.2844596927137332E-2
87 80 1.2952082469266922E-2
87 81 1.3045963895286368E-2
87 82 1.3125933332383884E-2
87 83 1.3191727347011566E-2
87 84 1.3243128390610169E-2
87 85 1.3279965998018756E-2
87 86 1.33021177293305E-2
87 87 1.330950984791183E-2
87 88 1.33021177293305E-2
87 89 1.3279965998018756E-2
87 90 1.3243128390610169E-2
87 91 1.3191727347011566E-2
87 92 1.3125933332383884E-2
87 93 1.3045963895286368E-2
87 94 1.2952082469266922E-2
87 95 1.2844596927137332E-2
87 96 1.2723857899036553E-2
87 97 1.2590256867140038E-2
87 98 1.2444224051501605E-2
87 99 1.2286226103001317E-2
87 100 1.211676362070477E-2
87 101 1.1936368512104304E-2
87 102 1.174560121570136E-2
87 103 1.1545047806193727E-2
87 104 1.1335317003146307E-2
87 105 1.1117037104445721E-2
87 106 1.0890852866066733E-2
87 107 1.0657422349712599E-2
87 108 1.0417413759735424E-2
87 109 1.0171502290401539E-2
87 110 9.920367004047512E-3
87 111 9.664687759983982E-3
87 112 9.405142213157209E-3
87 113 9.142402900584164E-3
87 114 8.87713443244969E-3
87 115 8.609990803507927E-3
87 116 8.341612839080366E-3
87 117 8.072625788505754E-3
87 118 7.803637077389106E-3
87 119 7.535234228435287E-3
87 120 7.267982959054018E-3
87 121 7.002425462304573E-3
87 122 6.739078876126403E-3
87 123 6.478433944192542E-3
87 124 6.220953870141162E-3
87 125 5.967073365401693E-3
87 126 5.717197889348822E-3
87 127 5.471703079103E-3
87 128 5.230934364960887E-3
87 129 4.995206766193312E-3
87 130 4.76480486080035E-3
87 131 4.53998292177005E-3
87 132 4.32096521145483E-3
87 133 4.107946424861764E-3
87 134 3.901092271952699E-3
87 135 3.7005401884686075E-3
87 136 3.5064001643299895E-3
87 137 3.3187556783199905E-3
87 138 3.1376647275268414E-3
87 139 2.9631609399036283E-3
87 140 2.795254758291549E-3
87 141 2.633934684342309E-3
87 142 2.4791685709596527E-3
87 143 2.330904952152349E-3
87 144 2.1890743995435897E-3
87 145 2.0535908952067335E-3
87 146 1.9243532109863046E-3
87 147 1.8012462850076334E-3
87 148 1.6841425866698377E-3
87 149 1.5729034620464647E-3
87 150 1.4673804522774983E-3
87 151 1.367416578217387E-3
87 152 1.2728475852982531E-3
87 153 1.183503143267951E-3
87 154 1.0992079961619481E-3
87 155 1.0197830585595082E-3
87 156 9.450464548521614E-4
87 157 8.748144989104668E-4
87 158 8.089026121686099E-4
87 159 7.471261787510978E-4
87 160 6.893013368380249E-4
87 161 6.352457060019391E-4
87 162 5.847790507477894E-4
87 163 5.377238809458774E-4
87 164 4.939059902648149E-4
87 165 4.531549340864822E-4
87 166 4.153044487175457E-4
87 167 3.801928140025063E-4
87 168 3.4766316169206583E-4
87 169 3.175637321289198E-4
87 170 2.8974808198221224E-4
87 171 2.64075245893548E-4
87 172 2.404098549935424E-4
87 173 2.186222153105597E-4
87 174 1.9858834912484408E-4
87 175 1.801900023241393E-4
87 176 1.6331462079362345E-4
87 177 1.478552988261544E-4
87 178 1.3371070247100844E-4
87 179 1.2078497065307907E-4
87 180 1.0898759679241744E-4
87 181 9.8233293538506E-5
87 182 8.844184310713185E-5
87 183 7.953793557242816E-5
87 184 7.145099732471724E-5
87 185 6.41150117582164E-5
87 186 5.746833410330014E-5
87 187 5.1453502167554E-5
88 1 3.787783514489834E-4
88 2 3.819368361041831E-4
88 3 3.8826515381969683E-4
88 4 3.9778594836455643E-4
88 5 4.1053305263529134E-4
88 6 4.2655132892133727E-4
88 7 4.458964552305718E-4
88 8 4.686346571096382E-4
88 9 4.948423842899739E-4
88 10 5.246059314111994E-4
88 11 5.580210020230313E-4
88 12 5.951922150491775E-4
88 13 5.847790507477894E-4
88 14 6.352457060019391E-4
88 15 6.893013368380249E-4
88 16 7.471261787510978E-4
88 17 8.089026121686099E-4
88 18 8.748144989104668E-4
88 19 9.450464548521614E-4
88 20 1.0197830585595082E-3
88 21 1.0992079961619481E-3
88 22 1.183503143267951E-3
88 23 1.2728475852982531E-3
88 24 1.367416578217387E-3
88 25 1.4673804522774983E-3
88 26 1.5729034620464647E-3
88 27 1.6841425866698377E-3
88 28 1.8012462850076334E-3
88 29 1.9243532109863046E-3
88 30 2.0535908952067335E-3
88 31 2.1890743995435897E-3
88 32 2.330904952152349E-3
88 33 2.4791685709596527E-3
88 34 2.633934684342309E-3
88 35 2.795254758291549E-3
88 36 2.9631609399036283E-3
88 37 3.1376647275268414E-3
88 38 3.3187556783199905E-3
88 39 3.5064001643299895E-3
88 40 3.7005401884686075E-3
88 41 3.901092271952699E-3
88 42 4.107946424861764E-3
88 43 4.32096521145483E-3
88 44 4.53998292177005E-3
88 45 4.76480486080035E-3
88 46 4.995206766193312E-3
88 47 5.230934364960887E-3
88 48 5.471703079103E-3
88 49 5.717197889348822E-3
88 50 5.967073365401693E-3
88 51 6.220953870141162E-3
88 52 6.478433944192542E-3
88 53 6.739078876126403E-3
88 54 7.002425462304573E-3
88 55 7.267982959054018E-3
88 56 7.535234228435287E-3
88 57 7.803637077389106E-3
88 58 8.072625788505754E-3
88 59 8.341612839080366E-3
88 60 8.609990803507927E-3
88 61 8.87713443244969E-3
88 62 9.142402900584164E-3
88 63 9.405142213157209E-3
88 64 9.664687759983982E-3
88 65 9.920367004047512E-3
88 66 1.0171502290401539E-2
88 67 1.0417413759735424E-2
88 68 1.0657422349712599E-2
88 69 1.0890852866066733E-2
88 70 1.1117037104445721E-2
88 71 1.1335317003146307E-2
88 72 1.1545047806193727E-2
88 73 1.174560121570136E-2
88 74 1.1936368512104304E-2
88 75 1.211676362070477E-2
88 76 1.2286226103001317E-2
88 77 1.2444224051501605E-2
88 78 1.2590256867140038E-2
88 79 1.2723857899036553E-2
88 80 1.2844596927137332E-2
88 81 1.2952082469266922E-2
88 82 1.3045963895286368E-2
88 83 1.3125933332383884E-2
88 84 1.3191727347011566E-2
88 85 1.3243128390610169E-2
88 86 1.3279965998018756E-2
88 87 1.33021177293305E-2
88 88 1.330950984791183E-2
88 89 1.33021177293305E-2
88 90 1.3279965998018756E-2
88 91 1.3243128390610169E-2
88 92 1.3191727347011566E-2
88 93 1.3125933332383884E-2
88 94 1.3045963895286368E-2
88 95 1.2952082469266922E-2
88 96 1.2844596927137332E-2
88 97 1.2723857899036553E-2
88 98 1.2590256867140038E-2
88 99 1.2444224051501605E-2
88 100 1.2286226103001317E-2
88 101 1.211676362070477E-2
88 102 1.1936368512104304E-2
88 103 1.174560121570136E-2
88 104 1.1545047806193727E-2
88 105 1.1335317003146307E-2
88 106 1.1117037104445721E-2
88 107 1.0890852866066733E-2
88 108 1.0657422349712599E-2
88 109 1.0417413759735424E-2
88 110 1.0171502290401539E-2
88 111 9.920367004047512E-3
88 112 9.664687759983982E-3
88 113 9.405142213157209E-3
88 114 9.142402900584164E-3
88 115 8.87713443244969E-3
88 116 8.609990803507927E-3
88 117 8.341612839080366E-3
88 118 8.072625788505754E-3
88 119 7.803637077389106E-3
88 120 7.535234228435287E-3
88 121 7.267982959054018E-3
88 122 7.002425462304573E-3
88 123 6.739078876126403E-3
88 124 6.478433944192542E-3
88 125 6.220953870141162E-3
88 126 5.967073365401693E-3
88 127 5.717197889348822E-3
88 128 5.471703079103E-3
88 129 5.230934364960887E-3
88 130 4.995206766193312E-3
88 131 4.76480486080035E-3
88 132 4.53998292177005E-3
88 133 4.32096521145483E-3
88 134 4.107946424861764E-3
88 135 3.901092271952699E-3
88 136 3.7005401884686075E-3
88 137 3.5064001643299895E-3
88 138 3.3187556783199905E-3
88 139 3.1376647275268414E-3
88 140 2.9631609399036283E-3
88 141 2.795254758291549E-3
88 142 2.633934684342309E-3
88 143 2.4791685709596527E-3
88 144 2.330904952152349E-3
88 145 2.1890743995435897E-3
88 146 2.0535908952067335E-3
88 147 1.9243532109863046E-3
88 148 1.8012462850076334E-3
88 149 1.6841425866698377E-3
88 150 1.5729034620464647E-3
88 151 1.4673804522774983E-3
88 152 1.367416578217387E-3
88 153 1.2728475852982531E-3
88 154 1.183503143267951E-3
88 155 1.0992079961619481E-3
88 156 1.0197830585595082E-3
88 157 9.450464548521614E-4
88 158 8.748144989104668E-4
88 159 8.089026121686099E-4
88 160 7.471261787510978E-4
88 161 6.893013368380249E-4
88 162 6.352457060019391E-4
88 163 5.847790507477894E-4
88 164 5.377238809458774E-4
88 165 4.939059902648149E-4
88 166 4.531549340864822E-4
88 167 4.153044487175457E-4
88 168 3.801928140025063E-4
88 169 3.4766316169206583E-4
88 170 3.175637321289198E-4
88 171 2.8974808198221224E-4
88 172 2.64075245893548E-4
88 173 2.404098549935424E-4
88 174 2.186222153105597E-4
88 175 1.9858834912484408E-4
88 176 1.801900023241393E-4
88 177 1.6331462079362345E-4
88 178 1.478552988261544E-4
88 179 1.3371070247100844E-4
88 180 1.2078497065307907E-4
88 181 1.0898759679241744E-4
88 182 9.8233293538506E-5
88 183 8.844184310713185E-5
88 184 7.953793557242816E-5
88 185 7.145099732471724E-5
88 186 6.41150117582164E-5
88 187 5.746833410330014E-5
88 188 5.1453502167554E-5
89 1 3.4350462311776275E-4
89 2 3.464436479509985E-4
89 3 3.523329177815681E-4
89 4 3.611948256466215E-4
89 5 3.7306284268596545E-4
89 6 3.879813755207182E-4
89 7 4.060055752360517E-4
89 8 4.27201097264494E-4
89 9 4.5164381132722356E-4
89 10 4.7941946047576215E-4
89 11 5.106232681897823E-4
89 12 4.939059902648149E-4
89 13 5.377238809458774E-4
89 14 5.847790507477894E-4
89 15 6.352457060019391E-4
89 16 6.893013368380249E-4
89 17 7.471261787510978E-4
89 18 8.089026121686099E-4
89 19 8.748144989104668E-4
89 20 9.450464548521614E-4
89 21 1.0197830585595082E-3
89 22 1.0992079961619481E-3
89 23 1.183503143267951E-3
89 24 1.2728475852982531E-3
89 25 1.367416578217387E-3
89 26 1.4673804522774983E-3
89 27 1.5729034620464647E-3
89 28 1.6841425866698377E-3
89 29 1.8012462850076334E-3
89 30 1.9243532109863046E-3
89 31 2.0535908952067335E-3
89 32 2.1890743995435897E-3
89 33 2.330904952152349E-3
89 34 2.4791685709596527E-3
89 35 2.633934684342309E-3
89 36 2.795254758291549E-3
89 37 2.9631609399036283E-3
89 38 3.1376647275268414E-3
89 39 3.3187556783199905E-3
89 40 3.5064001643299895E-3
89 41 3.7005401884686075E-3
89 42 3.901092271952699E-3
89 43 4.107946424861764E-3
89 44 4.32096521145483E-3
89 45 4.53998292177005E-3
89 46 4.76480486080035E-3
89 47 4.995206766193312E-3
89 48 5.230934364960887E-3
89 49 5.471703079103E-3
89 50 5.717197889348822E-3
89 51 5.967073365401693E-3
89 52 6.220953870141162E-3
89 53 6.478433944192542E-3
89 54 6.739078876126403E-3
89 55 7.002425462304573E-3
89 56 7.267982959054018E-3
89 57 7.535234228435287E-3
89 58 7.803637077389106E-3
89 59 8.072625788505754E-3
89 60 8.341612839080366E-3
89 61 8.609990803507927E-3
89 62 8.87713443244969E-3
89 63 9.142402900584164E-3
89 64 9.405142213157209E-3
89 65 9.664687759983982E-3
89 66 9.920367004047512E-3
89 67 1.0171502290401539E-2
89 68 1.0417413759735424E-2
89 69 1.0657422349712599E-2
89 70 1.0890852866066733E-2
89 71 1.1117037104445721E-2
89 72 1.1335317003146307E-2
89 73 1.1545047806193727E-2
89 74 1.174560121570136E-2
89 75 1.1936368512104304E-2
89 76 1.211676362070477E-2
89 77 1.2286226103001317E-2
89 78 1.2444224051501605E-2
89 79 1.2590256867140038E-2
89 80 1.2723857899036553E-2
89 81 1.2844596927137332E-2
89 82 1.2952082469266922E-2
89 83 1.3045963895286368E-2
89 84 1.3125933332383884E-2
89 85 1.3191727347011566E-2
89 86 1.3243128390610169E-2
89 87 1.3279965998018756E-2
89 88 1.33021177293305E-2
89 89 1.330950984791183E-2
89 90 1.33021177293305E-2
89 91 1.3279965998018756E-2
89 92 1.3243128390610169E-2
89 93 1.3191727347011566E-2
89 94 1.3125933332383884E-2
89 95 1.3045963895286368E-2
89 96 1.2952082469266922E-2
89 97 1.2844596927137332E-2
89 98 1.2723857899036553E-2
89 99 1.2590256867140038E-2
89 100 1.2444224051501605E-2
89 101 1.2286226103001317E-2
89 102 1.211676362070477E-2
89 103 1.1936368512104304E-2
89 104 1.174560121570136E-2
89 105 1.1545047806193727E-2
89 106 1.1335317003146307E-2
89 107 1.1117037104445721E-2
89 108 1.0890852866066733E-2
89 109 1.0657422349712599E-2
89 110 1.0417413759735424E-2
89 111 1.0171502290401539E-2
89 112 9.920367004047512E-3
89 113 9.664687759983982E-3
89 114 9.405142213157209E-3
89 115 9.142402900584164E-3
89 116 8.87713443244969E-3
89 117 8.609990803507927E-3
89 118 8.341612839080366E-3
89 119 8.072625788505754E-3
89 120 7.803637077389106E-3
89 121 7.535234228435287E-3
89 122 7.267982959054018E-3
89 123 7.002425462304573E-3
89 124 6.739078876126403E-3
89 125 6.478433944192542E-3
89 126 6.220953870141162E-3
89 127 5.967073365401693E-3
89 128 5.717197889348822E-3
89 129 5.471703079103E-3
89 130 5.230934364960887E-3
89 131 4.995206766193312E-3
89 132 4.76480486080035E-3
89 133 4.53998292177005E-3
89 134 4.32096521145483E-3
89 135 4.107946424861764E-3
89 136 3.901092271952699E-3
89 137 3.7005401884686075E-3
89 138 3.5064001643299895E-3
89 139 3.3187556783199905E-3
89 140 3.1376647275268414E-3
89 141 2.9631609399036283E-3
89 142 2.795254758291549E-3
89 143 2.633934684342309E-3
89 144 2.4791685709596527E-3
89 145 2.330904952152349E-3
89 146 2.1890743995435897E-3
89 147 2.0535908952067335E-3
89 148 1.9243532109863046E-3
89 149 1.8012462850076334E-3
89 150 1.6841425866698377E-3
89 151 1.5729034620464647E-3
89 152 1.4673804522774983E-3
89 153 1.367416578217387E-3
89 154 1.2728475852982531E-3
89 155 1.183503143267951E-3
89 156 1.0992079961619481E-3
89 157 1.0197830585595082E-3
89 158 9.450464548521614E-4
89 159 8.748144989104668E-4
89 160 8.089026121686099E-4
89 161 7.471261787510978E-4
89 162 6.893013368380249E-4
89 163 6.352457060019391E-4
89 164 5.847790507477894E-4
89 165 5.377238809458774E-4
89 166 4.939059902648149E-4
89 167 4.531549340864822E-4
89 168 4.153044487175457E-4
89 169 3.801928140025063E-4
89 170 3.4766316169206583E-4
89 171 3.175637321289198E-4
89 172 2.8974808198221224E-4
89 173 2.64075245893548E-4
89 174 2.404098549935424E-4
89 175 2.186222153105597E-4
89 176 1.9858834912484408E-4
89 177 1.801900023241393E-4
89 178 1.6331462079362345E-4
89 179 1.478552988261544E-4
89 180 1.3371070247100844E-4
89 181 1.2078497065307907E-4
89 182 1.0898759679241744E-4
89 183 9.8233293538506E-5
89 184 8.844184310713185E-5
89 185 7.953793557242816E-5
89 186 7.145099732471724E-5
89 187 6.41150117582164E-5
89 188 5.746833410330014E-5
89 189 5.1453502167554E-5
90 1 3.111699196197778E-4
90 2 3.1390070479514774E-4
90 3 3.193733197779232E-4
90 4 3.276098121029771E-4
90 5 3.386431485320484E-4
90 6 3.5251708900067987E-4
90 7 3.692860175546404E-4
90 8 3.8901472945363706E-4
90 9 4.1177817345028225E-4
90 10 4.376611481058064E-4
90 11 4.153044487175457E-4
90 12 4.531549340864822E-4
90 13 4.939059902648149E-4
90 14 5.377238809458774E-4
90 15 5.847790507477894E-4
90 16 6.352457060019391E-4
90 17 6.893013368380249E-4
90 18 7.471261787510978E-4
90 19 8.089026121686099E-4
90 20 8.748144989104668E-4
90 21 9.450464548521614E-4
90 22 1.0197830585595082E-3
90 23 1.0992079961619481E-3
90 24 1.183503143267951E-3
90 25 1.2728475852982531E-3
90 26 1.367416578217387E-3
90 27 1.4673804522774983E-3
90 28 1.5729034620464647E-3
90 29 1.6841425866698377E-3
90 30 1.8012462850076334E-3
90 31 1.9243532109863046E-3
90 32 2.0535908952067335E-3
90 33 2.1890743995435897E-3
90 34 2.330904952152349E-3
90 35 2.4791685709596527E-3
90 36 2.633934684342309E-3
90 37 2.795254758291549E-3
90 38 2.9631609399036283E-3
90 39 3.1376647275268414E-3
90 40 3.3187556783199905E-3
90 41 3.5064001643299895E-3
90 42 3.7005401884686075E-3
90 43 3.901092271952699E-3
90 44 4.107946424861764E-3
90 45 4.32096521145483E-3
90 46 4.53998292177005E-3
90 47 4.76480486080035E-3
90 48 4.995206766193312E-3
90 49 5.230934364960887E-3
90 50 5.471703079103E-3
90 51 5.717197889348822E-3
90 52 5.967073365401693E-3
90 53 6.220953870141162E-3
90 54 6.478433944192542E-3
90 55 6.739078876126403E-3
90 56 7.002425462304573E-3
90 57 7.267982959054018E-3
90 58 7.535234228435287E-3
90 59 7.803637077389106E-3
90 60 8.072625788505754E-3
90 61 8.341612839080366E-3
90 62 8.609990803507927E-3
90 63 8.87713443244969E-3
90 64 9.142402900584164E-3
90 65 9.405142213157209E-3
90 66 9.664687759983982E-3
90 67 9.920367004047512E-3
90 68 1.0171502290401539E-2
90 69 1.0417413759735424E-2
90 70 1.0657422349712599E-2
90 71 1.0890852866066733E-2
90 72 1.1117037104445721E-2
90 73 1.1335317003146307E-2
90 74 1.1545047806193727E-2
90 75 1.174560121570136E-2
90 76 1.1936368512104304E-2
90 77 1.211676362070477E-2
90 78 1.2286226103001317E-2
90 79 1.2444224051501605E-2
90 80 1.2590256867140038E-2
90 81 1.2723857899036553E-2
90 82 1.2844596927137332E-2
90 83 1.2952082469266922E-2
90 84 1.3045963895286368E-2
90 85 1.3125933332383884E-2
90 86 1.3191727347011566E-2
90 87 1.3243128390610169E-2
90 88 1.3279965998018756E-2
90 89 1.33021177293305E-2
90 90 1.330950984791183E-2
90 91 1.33021177293305E-2
90 92 1.3279965998018756E-2
90 93 1.3243128390610169E-2
90 94 1.3191727347011566E-2
90 95 1.3125933332383884E-2
90 96 1.3045963895286368E-2
90 97 1.2952082469266922E-2
90 98 1.2844596927137332E-2
90 99 1.2723857899036553E-2
90 100 1.2590256867140038E-2
90 101 1.2444224051501605E-2
90 102 1.2286226103001317E-2
90 103 1.211676362070477E-2
90 104 1.1936368512104304E-2
90 105 1.174560121570136E-2
90 106 1.1545047806193727E-2
90 107 1.1335317003146307E-2
90 108 1.1117037104445721E-2
90 109 1.0890852866066733E-2
90 110 1.0657422349712599E-2
90 111 1.0417413759735424E-2
90 112 1.0171502290401539E-2
90 113 9.920367004047512E-3
90 114 9.664687759983982E-3
90 115 9.405142213157209E-3
90 116 9.142402900584164E-3
90 117 8.87713443244969E-3
90 118 8.609990803507927E-3
90 119 8.341612839080366E-3
90 120 8.072625788505754E-3
90 121 7.803637077389106E-3
90 122 7.535234228435287E-3
90 123 7.267982959054018E-3
90 124 7.002425462304573E-3
90 125 6.739078876126403E-3
90 126 6.478433944192542E-3
90 127 6.220953870141162E-3
90 128 5.967073365401693E-3
90 129 5.717197889348822E-3
90 130 5.471703079103E-3
90 131 5.230934364960887E-3
90 132 4.995206766193312E-3
90 133 4.76480486080035E-3
90 134 4.53998292177005E-3
90 135 4.32096521145483E-3
90 136 4.107946424861764E-3
90 137 3.901092271952699E-3
90 138 3.7005401884686075E-3
90 139 3.5064001643299895E-3
90 140 3.3187556783199905E-3
90 141 3.1376647275268414E-3
90 142 2.9631609399036283E-3
90 143 2.795254758291549E-3
90 144 2.633934684342309E-3
90 145 2.4791685709596527E-3
90 146 2.330904952152349E-3
90 147 2.1890743995435897E-3
90 148 2.0535908952067335E-3
90 149 1.9243532109863046E-3
90 150 1.8012462850076334E-3
90 151 1.6841425866698377E-3
90 152 1.5729034620464647E-3
90 153 1.4673804522774983E-3
90 154 1.367416578217387E-3
90 155 1.2728475852982531E-3
90 156 1.183503143267951E-3
90 157 1.0992079961619481E-3
90 158 1.0197830585595082E-3
90 159 9.450464548521614E-4
90 160 8.748144989104668E-4
90 161 8.089026121686099E-4
90 162 7.471261787510978E-4
90 163 6.893013368380249E-4
90 164 6.352457060019391E-4
90 165 5.847790507477894E-4
90 166 5.377238809458774E-4
90 167 4.939059902648149E-4
90 168 4.531549340864822E-4
90 169 4.153044487175457E-4
90 170 3.801928140025063E-4
90 171 3.4766316169206583E-4
90 172 3.175637321289198E-4
90 173 2.8974808198221224E-4
90 174 2.64075245893548E-4
90 175 2.404098549935424E-4
90 176 2.186222153105597E-4
90 177 1.9858834912484408E-4
90 178 1.801900023241393E-4
90 179 1.6331462079362345E-4
90 180 1.478552988261544E-4
90 181 1.3371070247100844E-4
90 182 1.2078497065307907E-4
90 183 1.0898759679241744E-4
90 184 9.8233293538506E-5
90 185 8.844184310713185E-5
90 186 7.953793557242816E-5
90 187 7.145099732471724E-5
90 188 6.41150117582164E-5
90 189 5.746833410330014E-5
90 190 5.1453502167554E-5
91 1 2.815660012971628E-4
91 2 2.840995914467025E-4
91 3 2.8917759911655677E-4
91 4 2.9682164266335006E-4
91 5 3.0706405841769154E-4
91 6 3.1994779056597055E-4
91 7 3.3552624321826524E-4
91 8 3.5386309374042866E-4
91 9 3.7503206623221993E-4
91 10 3.4766316169206583E-4
91 11 3.801928140025063E-4
91 12 4.153044487175457E-4
91 13 4.531549340864822E-4
91 14 4.939059902648149E-4
91 15 5.377238809458774E-4
91 16 5.847790507477894E-4
91 17 6.352457060019391E-4
91 18 6.893013368380249E-4
91 19 7.471261787510978E-4
91 20 8.089026121686099E-4
91 21 8.748144989104668E-4
91 22 9.450464548521614E-4
91 23 1.0197830585595082E-3
91 24 1.0992079961619481E-3
91 25 1.183503143267951E-3
91 26 1.2728475852982531E-3
91 27 1.367416578217387E-3
91 28 1.4673804522774983E-3
91 29 1.5729034620464647E-3
91 30 1.6841425866698377E-3
91 31 1.8012462850076334E-3
91 32 1.9243532109863046E-3
91 33 2.0535908952067335E-3
91 34 2.1890743995435897E-3
91 35 2.330904952152349E-3
91 36 2.4791685709596527E-3
91 37 2.633934684342309E-3
91 38 2.795254758291549E-3
91 39 2.9631609399036283E-3
91 40 3.1376647275268414E-3
91 41 3.3187556783199905E-3
91 42 3.5064001643299895E-3
91 43 3.7005401884686075E-3
91 44 3.901092271952699E-3
91 45 4.107946424861764E-3
91 46 4.32096521145483E-3
91 47 4.53998292177005E-3
91 48 4.76480486080035E-3
91 49 4.995206766193312E-3
91 50 5.230934364960887E-3
91 51 5.471703079103E-3
91 52 5.717197889348822E-3
91 53 5.967073365401693E-3
91 54 6.220953870141162E-3
91 55 6.478433944192542E-3
91 56 6.739078876126403E-3
91 57 7.002425462304573E-3
91 58 7.267982959054018E-3
91 59 7.535234228435287E-3
91 60 7.803637077389106E-3
91 61 8.072625788505754E-3
91 62 8.341612839080366E-3
91 63 8.609990803507927E-3
91 64 8.87713443244969E-3
91 65 9.142402900584164E-3
91 66 9.405142213157209E-3
91 67 9.664687759983982E-3
91 68 9.920367004047512E-3
91 69 1.0171502290401539E-2
91 70 1.0417413759735424E-2
91 71 1.0657422349712599E-2
91 72 1.0890852866066733E-2
91 73 1.1117037104445721E-2
91 74 1.1335317003146307E-2
91 75 1.1545047806193727E-2
91 76 1.174560121570136E-2
91 77 1.1936368512104304E-2
91 78 1.211676362070477E-2
91 79 1.2286226103001317E-2
91 80 1.2444224051501605E-2
91 81 1.2590256867140038E-2
91 82 1.2723857899036553E-2
91 83 1.2844596927137332E-2
91 84 1.2952082469266922E-2
91 85 1.3045963895286368E-2
91 86 1.3125933332383884E-2
91 87 1.3191727347011566E-2
91 88 1.3243128390610169E-2
91 89 1.3279965998018756E-2
91 90 1.33021177293305E-2
91 91 1.330950984791183E-2
91 92 1.33021177293305E-2
91 93 1.3279965998018756E-2
91 94 1.3243128390610169E-2
91 95 1.3191727347011566E-2
91 96 1.3125933332383884E-2
91 97 1.3045963895286368E-2
91 98 1.2952082469266922E-2
91 99 1.2844596927137332E-2
91 100 1.2723857899036553E-2
91 101 1.2590256867140038E-2
91 102 1.2444224051501605E-2
91 103 1.2286226103001317E-2
91 104 1.211676362070477E-2
91 105 1.1936368512104304E-2
91 106 1.174560121570136E-2
91 107 1.1545047806193727E-2
91 108 1.1335317003146307E-2
91 109 1.1117037104445721E-2
91 110 1.0890852866066733E-2
91 111 1.0657422349712599E-2
91 112 1.0417413759735424E-2
91 113 1.0171502290401539E-2
91 114 9.920367004047512E-3
91 115 9.664687759983982E-3
91 116 9.405142213157209E-3
91 117 9.142402900584164E-3
91 118 8.87713443244969E-3
91 119 8.609990803507927E-3
91 120 8.341612839080366E-3
91 121 8.072625788505754E-3
91 122 7.803637077389106E-3
91 123 7.535234228435287E-3
91 124 7.267982959054018E-3
91 125 7.002425462304573E-3
91 126 6.739078876126403E-3
91 127 6.478433944192542E-3
91 128 6.220953870141162E-3
91 129 5.967073365401693E-3
91 130 5.717197889348822E-3
91 131 5.471703079103E-3
91 132 5.230934364960887E-3
91 133 4.995206766193312E-3
91 134 4.76480486080035E-3
91 135 4.53998292177005E-3
91 136 4.32096521145483E-3
91 137 4.107946424861764E-3
91 138 3.901092271952699E-3
91 139 3.7005401884686075E-3
91 140 3.5064001643299895E-3
91 141 3.3187556783199905E-3
91 142 3.1376647275268414E-3
91 143 2.9631609399036283E-3
91 144 2.795254758291549E-3
91 145 2.633934684342309E-3
91 146 2.4791685709596527E-3
91 147 2.330904952152349E-3
91 148 2.1890743995435897E-3
91 149 2.0535908952067335E-3
91 150 1.9243532109863046E-3
91 151 1.8012462850076334E-3
91 152 1.6841425866698377E-3
91 153 1.5729034620464647E-3
91 154 1.4673804522774983E-3
91 155 1.367416578217387E-3
91 156 1.2728475852982531E-3
91 157 1.183503143267951E-3
91 158 1.0992079961619481E-3
91 159 1.0197830585595082E-3
91 160 9.450464548521614E-4
91 161 8.748144989104668E-4
91 162 8.089026121686099E-4
91 163 7.471261787510978E-4
91 164 6.893013368380249E-4
91 165 6.352457060019391E-4
91 166 5.847790507477894E-4
91 167 5.377238809458774E-4
91 168 4.939059902648149E-4
91 169 4.531549340864822E-4
91 170 4.153044487175457E-4
91 171 3.801928140025063E-4
91 172 3.4766316169206583E-4
91 173 3.175637321289198E-4
91 174 2.8974808198221224E-4
91 175 2.64075245893548E-4
91 176 2.404098549935424E-4
91 177 2.186222153105597E-4
91 178 1.9858834912484408E-4
91 179 1.801900023241393E-4
91 180 1.6331462079362345E-4
91 181 1.478552988261544E-4
91 182 1.3371070247100844E-4
91 183 1.2078497065307907E-4
91 184 1.0898759679241744E-4
91 185 9.8233293538506E-5
91 186 8.844184310713185E-5
91 187 7.953793557242816E-5
91 188 7.145099732471724E-5
91 189 6.41150117582164E-5
91 190 5.746833410330014E-5
91 191 5.1453502167554E-5
92 1 2.544956731240875E-4
92 2 2.5684289561857184E-4
92 3 2.615479143321294E-4
92 4 2.686318454312712E-4
92 5 2.781262846972722E-4
92 6 2.900732126352769E-4
92 7 3.045248667517588E-4
92 8 3.215435799968481E-4
92 9 2.8974808198221224E-4
92 10 3.175637321289198E-4
92 11 3.4766316169206583E-4
92 12 3.801928140025063E-4
92 13 4.153044487175457E-4
92 14 4.531549340864822E-4
92 15 4.939059902648149E-4
92 16 5.377238809458774E-4
92 17 5.847790507477894E-4
92 18 6.352457060019391E-4
92 19 6.893013368380249E-4
92 20 7.471261787510978E-4
92 21 8.089026121686099E-4
92 22 8.748144989104668E-4
92 23 9.450464548521614E-4
92 24 1.0197830585595082E-3
92 25 1.0992079961619481E-3
92 26 1.183503143267951E-3
92 27 1.2728475852982531E-3
92 28 1.367416578217387E-3
92 29 1.4673804522774983E-3
92 30 1.5729034620464647E-3
92 31 1.6841425866698377E-3
92 32 1.8012462850076334E-3
92 33 1.9243532109863046E-3
92 34 2.0535908952067335E-3
92 35 2.1890743995435897E-3
92 36 2.330904952152349E-3
92 37 2.4791685709596527E-3
92 38 2.633934684342309E-3
92 39 2.795254758291549E-3
92 40 2.9631609399036283E-3
92 41 3.1376647275268414E-3
92 42 3.3187556783199905E-3
92 43 3.5064001643299895E-3
92 44 3.7005401884686075E-3
92 45 3.901092271952699E-3
92 46 4.107946424861764E-3
92 47 4.32096521145483E-3
92 48 4.53998292177005E-3
92 49 4.76480486080035E-3
92 50 4.995206766193312E-3
92 51 5.230934364960887E-3
92 52 5.471703079103E-3
92 53 5.717197889348822E-3
92 54 5.967073365401693E-3
92 55 6.220953870141162E-3
92 56 6.478433944192542E-3
92 57 6.739078876126403E-3
92 58 7.002425462304573E-3
92 59 7.267982959054018E-3
92 60 7.535234228435287E-3
92 61 7.803637077389106E-3
92 62 8.072625788505754E-3
92 63 8.341612839080366E-3
92 64 8.609990803507927E-3
92 65 8.87713443244969E-3
92 66 9.142402900584164E-3
92 67 9.405142213157209E-3
92 68 9.664687759983982E-3
92 69 9.920367004047512E-3
92 70 1.0171502290401539E-2
92 71 1.0417413759735424E-2
92 72 1.0657422349712599E-2
92 73 1.0890852866066733E-2
92 74 1.1117037104445721E-2
92 75 1.1335317003146307E-2
92 76 1.1545047806193727E-2
92 77 1.174560121570136E-2
92 78 1.1936368512104304E-2
92 79 1.211676362070477E-2
92 80 1.2286226103001317E-2
92 81 1.2444224051501605E-2
92 82 1.2590256867140038E-2
92 83 1.2723857899036553E-2
92 84 1.2844596927137332E-2
92 85 1.2952082469266922E-2
92 86 1.3045963895286368E-2
92 87 1.3125933332383884E-2
92 88 1.3191727347011566E-2
92 89 1.3243128390610169E-2
92 90 1.3279965998018756E-2
92 91 1.33021177293305E-2
92 92 1.330950984791183E-2
92 93 1.33021177293305E-2
92 94 1.3279965998018756E-2
92 95 1.3243128390610169E-2
92 96 1.3191727347011566E-2
92 97 1.3125933332383884E-2
92 98 1.3045963895286368E-2
92 99 1.2952082469266922E-2
92 100 1.2844596927137332E-2
92 101 1.2723857899036553E-2
92 102 1.2590256867140038E-2
92 103 1.2444224051501605E-2
92 104 1.2286226103001317E-2
92 105 1.211676362070477E-2
92 106 1.1936368512104304E-2
92 107 1.174560121570136E-2
92 108 1.1545047806193727E-2
92 109 1.1335317003146307E-2
92 110 1.1117037104445721E-2
92 111 1.0890852866066733E-2
92 112 1.0657422349712599E-2
92 113 1.0417413759735424E-2
92 114 1.0171502290401539E-2
92 115 9.920367004047512E-3
92 116 9.664687759983982E-3
92 117 9.405142213157209E-3
92 118 9.142402900584164E-3
92 119 8.87713443244969E-3
92 120 8.609990803507927E-3
92 121 8.341612839080366E-3
92 122 8.072625788505754E-3
92 123 7.803637077389106E-3
92 124 7.535234228435287E-3
92 125 7.267982959054018E-3
92 126 7.002425462304573E-3
92 127 6.739078876126403E-3
92 128 6.478433944192542E-3
92 129 6.220953870141162E-3
92 130 5.967073365401693E-3
92 131 5.717197889348822E-3
92 132 5.471703079103E-3
92 133 5.230934364960887E-3
92 134 4.995206766193312E-3
92 135 4.76480486080035E-3
92 136 4.53998292177005E-3
92 137 4.32096521145483E-3
92 138 4.107946424861764E-3
92 139 3.901092271952699E-3
92 140 3.7005401884686075E-3
92 141 3.5064001643299895E-3
92 142 3.3187556783199905E-3
92 143 3.1376647275268414E-3
92 144 2.9631609399036283E-3
92 145 2.795254758291549E-3
92 146 2.633934684342309E-3
92 147 2.4791685709596527E-3
92 148 2.330904952152349E-3
92 149 2.1890743995435897E-3
92 150 2.0535908952067335E-3
92 151 1.9243532109863046E-3
92 152 1.8012462850076334E-3
92 153 1.6841425866698377E-3
92 154 1.5729034620464647E-3
92 155 1.4673804522774983E-3
92 156 1.367416578217387E-3
92 157 1.2728475852982531E-3
92 158 1.183503143267951E-3
92 159 1.0992079961619481E-3
92 160 1.0197830585595082E-3
92 161 9.450464548521614E-4
92 162 8.748144989104668E-4
92 163 8.089026121686099E-4
92 164 7.471261787510978E-4
92 165 6.893013368380249E-4
92 166 6.352457060019391E-4
92 167 5.847790507477894E-4
92 168 5.377238809458774E-4
92 169 4.939059902648149E-4
92 170 4.531549340864822E-4
92 171 4.153044487175457E-4
92 172 3.801928140025063E-4
92 173 3.4766316169206583E-4
92 174 3.175637321289198E-4
92 175 2.8974808198221224E-4
92 176 2.64075245893548E-4
92 177 2.404098549935424E-4
92 178 2.186222153105597E-4
92 179 1.9858834912484408E-4
92 180 1.801900023241393E-4
92 181 1.6331462079362345E-4
92 182 1.478552988261544E-4
92 183 1.3371070247100844E-4
92 184 1.2078497065307907E-4
92 185 1.0898759679241744E-4
92 186 9.8233293538506E-5
92 187 8.844184310713185E-5
92 188 7.953793557242816E-5
92 189 7.145099732471724E-5
92 190 6.41150117582164E-5
92 191 5.746833410330014E-5
92 192 5.1453502167554E-5
93 1 2.297725674454965E-4
93 2 2.3194399600951442E-4
93 3 2.3629714193328625E-4
93 4 2.428525563660516E-4
93 5 2.5164099964885655E-4
93 6 2.627033608830605E-4
93 7 2.7609054941385983E-4
93 8 2.404098549935424E-4
93 9 2.64075245893548E-4
93 10 2.8974808198221224E-4
93 11 3.175637321289198E-4
93 12 3.4766316169206583E-4
93 13 3.801928140025063E-4
93 14 4.153044487175457E-4
93 15 4.531549340864822E-4
93 16 4.939059902648149E-4
93 17 5.377238809458774E-4
93 18 5.847790507477894E-4
93 19 6.352457060019391E-4
93 20 6.893013368380249E-4
93 21 7.471261787510978E-4
93 22 8.089026121686099E-4
93 23 8.748144989104668E-4
93 24 9.450464548521614E-4
93 25 1.0197830585595082E-3
93 26 1.0992079961619481E-3
93 27 1.183503143267951E-3
93 28 1.2728475852982531E-3
93 29 1.367416578217387E-3
93 30 1.4673804522774983E-3
93 31 1.5729034620464647E-3
93 32 1.6841425866698377E-3
93 33 1.8012462850076334E-3
93 34 1.9243532109863046E-3
93 35 2.0535908952067335E-3
93 36 2.1890743995435897E-3
93 37 2.330904952152349E-3
93 38 2.4791685709596527E-3
93 39 2.633934684342309E-3
93 40 2.795254758291549E-3
93 41 2.9631609399036283E-3
93 42 3.1376647275268414E-3
93 43 3.3187556783199905E-3
93 44 3.5064001643299895E-3
93 45 3.7005401884686075E-3
93 46 3.901092271952699E-3
93 47 4.107946424861764E-3
93 48 4.32096521145483E-3
93 49 4.53998292177005E-3
93 50 4.76480486080035E-3
93 51 4.995206766193312E-3
93 52 5.230934364960887E-3
93 53 5.471703079103E-3
93 54 5.717197889348822E-3
93 55 5.967073365401693E-3
93 56 6.220953870141162E-3
93 57 6.478433944192542E-3
93 58 6.739078876126403E-3
93 59 7.002425462304573E-3
93 60 7.267982959054018E-3
93 61 7.535234228435287E-3
93 62 7.803637077389106E-3
93 63 8.072625788505754E-3
93 64 8.341612839080366E-3
93 65 8.609990803507927E-3
93 66 8.87713443244969E-3
93 67 9.142402900584164E-3
93 68 9.405142213157209E-3
93 69 9.664687759983982E-3
93 70 9.920367004047512E-3
93 71 1.0171502290401539E-2
93 72 1.0417413759735424E-2
93 73 1.0657422349712599E-2
93 74 1.0890852866066733E-2
93 75 1.1117037104445721E-2
93 76 1.1335317003146307E-2
93 77 1.1545047806193727E-2
93 78 1.174560121570136E-2
93 79 1.1936368512104304E-2
93 80 1.211676362070477E-2
93 81 1.2286226103001317E-2
93 82 1.2444224051501605E-2
93 83 1.2590256867140038E-2
93 84 1.2723857899036553E-2
93 85 1.2844596927137332E-2
93 86 1.2952082469266922E-2
93 87 1.3045963895286368E-2
93 88 1.3125933332383884E-2
93 89 1.3191727347011566E-2
93 90 1.3243128390610169E-2
93 91 1.3279965998018756E-2
93 92 1.33021177293305E-2
93 93 1.330950984791183E-2
93 94 1.33021177293305E-2
93 95 1.3279965998018756E-2
93 96 1.3243128390610169E-2
93 97 1.3191727347011566E-2
93 98 1.3125933332383884E-2
93 99 1.3045963895286368E-2
93 100 1.2952082469266922E-2
93 101 1.2844596927137332E-2
93 102 1.2723857899036553E-2
93 103 1.2590256867140038E-2
93 104 1.2444224051501605E-2
93 105 1.2286226103001317E-2
93 106 1.211676362070477E-2
93 107 1.1936368512104304E-2
93 108 1.174560121570136E-2
93 109 1.1545047806193727E-2
93 110 1.1335317003146307E-2
93 111 1.1117037104445721E-2
93 112 1.0890852866066733E-2
93 113 1.0657422349712599E-2
93 114 1.0417413759735424E-2
93 115 1.0171502290401539E-2
93 116 9.920367004047512E-3
93 117 9.664687759983982E-3
93 118 9.405142213157209E-3
93 119 9.142402900584164E-3
93 120 8.87713443244969E-3
93 121 8.609990803507927E-3
93 122 8.341612839080366E-3
93 123 8.072625788505754E-3
93 124 7.803637077389106E-3
93 125 7.535234228435287E-3
93 126 7.267982959054018E-3
93 127 7.002425462304573E-3
93 128 6.739078876126403E-3
93 129 6.478433944192542E-3
93 130 6.220953870141162E-3
93 131 5.967073365401693E-3
93 132 5.717197889348822E-3
93 133 5.471703079103E-3
93 134 5.230934364960887E-3
93 135 4.995206766193312E-3
93 136 4.76480486080035E-3
93 137 4.53998292177005E-3
93 138 4.32096521145483E-3
93 139 4.107946424861764E-3
93 140 3.901092271952699E-3
93 141 3.7005401884686075E-3
93 142 3.5064001643299895E-3
93 143 3.3187556783199905E-3
93 144 3.1376647275268414E-3
93 145 2.9631609399036283E-3
93 146 2.795254758291549E-3
93 147 2.633934684342309E-3
93 148 2.4791685709596527E-3
93 149 2.330904952152349E-3
93 150 2.1890743995435897E-3
93 151 2.0535908952067335E-3
93 152 1.9243532109863046E-3
93 153 1.8012462850076334E-3
93 154 1.6841425866698377E-3
93 155 1.5729034620464647E-3
93 156 1.4673804522774983E-3
93 157 1.367416578217387E-3
93 158 1.2728475852982531E-3
93 159 1.183503143267951E-3
93 160 1.0992079961619481E-3
93 161 1.0197830585595082E-3
93 162 9.450464548521614E-4
93 163 8.748144989104668E-4
93 164 8.089026121686099E-4
93 165 7.471261787510978E-4
93 166 6.893013368380249E-4
93 167 6.352457060019391E-4
93 168 5.847790507477894E-4
93 169 5.377238809458774E-4
93 170 4.939059902648149E-4
93 171 4.531549340864822E-4
93 172 4.153044487175457E-4
93 173 3.801928140025063E-4
93 174 3.4766316169206583E-4
93 175 3.175637321289198E-4
93 176 2.8974808198221224E-4
93 177 2.64075245893548E-4
93 178 2.404098549935424E-4
93 179 2.186222153105597E-4
93 180 1.9858834912484408E-4
93 181 1.801900023241393E-4
93 182 1.6331462079362345E-4
93 183 1.478552988261544E-4
93 184 1.3371070247100844E-4
93 185 1.2078497065307907E-4
93 186 1.0898759679241744E-4
93 187 9.8233293538506E-5
93 188 8.844184310713185E-5
93 189 7.953793557242816E-5
93 190 7.145099732471724E-5
93 191 6.41150117582164E-5
93 192 5.746833410330014E-5
93 193 5.1453502167554E-5
94 1 2.0722089033092345E-4
94 2 2.0922681376021093E-4
94 3 2.1324863804343658E-4
94 4 2.1930629615087163E-4
94 5 2.2742963255183984E-4
94 6 2.3765833642743945E-4
94 7 1.9858834912484408E-4
94 8 2.186222153105597E-4
94 9 2.404098549935424E-4
94 10 2.64075245893548E-4
94 11 2.8974808198221224E-4
94 12 3.175637321289198E-4
94 13 3.4766316169206583E-4
94 14 3.801928140025063E-4
94 15 4.153044487175457E-4
94 16 4.531549340864822E-4
94 17 4.939059902648149E-4
94 18 5.377238809458774E-4
94 19 5.847790507477894E-4
94 20 6.352457060019391E-4
94 21 6.893013368380249E-4
94 22 7.471261787510978E-4
94 23 8.089026121686099E-4
94 24 8.748144989104668E-4
94 25 9.450464548521614E-4
94 26 1.0197830585595082E-3
94 27 1.0992079961619481E-3
94 28 1.183503143267951E-3
94 29 1.2728475852982531E-3
94 30 1.367416578217387E-3
94 31 1.4673804522774983E-3
94 32 1.5729034620464647E-3
94 33 1.6841425866698377E-3
94 34 1.8012462850076334E-3
94 35 1.9243532109863046E-3
94 36 2.0535908952067335E-3
94 37 2.1890743995435897E-3
94 38 2.330904952152349E-3
94 39 2.4791685709596527E-3
94 40 2.633934684342309E-3
94 41 2.795254758291549E-3
94 42 2.9631609399036283E-3
94 43 3.1376647275268414E-3
94 44 3.3187556783199905E-3
94 45 3.5064001643299895E-3
94 46 3.7005401884686075E-3
94 47 3.901092271952699E-3
94 48 4.107946424861764E-3
94 49 4.32096521145483E-3
94 50 4.53998292177005E-3
94 51 4.76480486080035E-3
94 52 4.995206766193312E-3
94 53 5.230934364960887E-3
94 54 5.471703079103E-3
94 55 5.717197889348822E-3
94 56 5.967073365401693E-3
94 57 6.220953870141162E-3
94 58 6.478433944192542E-3
94 59 6.739078876126403E-3
94 60 7.002425462304573E-3
94 61 7.267982959054018E-3
94 62 7.535234228435287E-3
94 63 7.803637077389106E-3
94 64 8.072625788505754E-3
94 65 8.341612839080366E-3
94 66 8.609990803507927E-3
94 67 8.87713443244969E-3
94 68 9.142402900584164E-3
94 69 9.405142213157209E-3
94 70 9.664687759983982E-3
94 71 9.920367004047512E-3
94 72 1.0171502290401539E-2
94 73 1.0417413759735424E-2
94 74 1.0657422349712599E-2
94 75 1.0890852866066733E-2
94 76 1.1117037104445721E-2
94 77 1.1335317003146307E-2
94 78 1.1545047806193727E-2
94 79 1.174560121570136E-2
94 80 1.1936368512104304E-2
94 81 1.211676362070477E-2
94 82 1.2286226103001317E-2
94 83 1.2444224051501605E-2
94 84 1.2590256867140038E-2
94 85 1.2723857899036553E-2
94 86 1.2844596927137332E-2
94 87 1.2952082469266922E-2
94 88 1.3045963895286368E-2
94 89 1.3125933332383884E-2
94 90 1.3191727347011566E-2
94 91 1.3243128390610169E-2
94 92 1.3279965998018756E-2
94 93 1.33021177293305E-2
94 94 1.330950984791183E-2
94 95 1.33021177293305E-2
94 96 1.3279965998018756E-2
94 97 1.3243128390610169E-2
94 98 1.3191727347011566E-2
94 99 1.3125933332383884E-2
94 100 1.3045963895286368E-2
94 101 1.2952082469266922E-2
94 102 1.2844596927137332E-2
94 103 1.2723857899036553E-2
94 104 1.2590256867140038E-2
94 105 1.2444224051501605E-2
94 106 1.2286226103001317E-2
94 107 1.211676362070477E-2
94 108 1.1936368512104304E-2
94 109 1.174560121570136E-2
94 110 1.1545047806193727E-2
94 111 1.1335317003146307E-2
94 112 1.1117037104445721E-2
94 113 1.0890852866066733E-2
94 114 1.0657422349712599E-2
94 115 1.0417413759735424E-2
94 116 1.0171502290401539E-2
94 117 9.920367004047512E-3
94 118 9.664687759983982E-3
94 119 9.405142213157209E-3
94 120 9.142402900584164E-3
94 121 8.87713443244969E-3
94 122 8.609990803507927E-3
94 123 8.341612839080366E-3
94 124 8.072625788505754E-3
94 125 7.803637077389106E-3
94 126 7.535234228435287E-3
94 127 7.267982959054018E-3
94 128 7.002425462304573E-3
94 129 6.739078876126403E-3
94 130 6.478433944192542E-3
94 131 6.220953870141162E-3
94 132 5.967073365401693E-3
94 133 5.717197889348822E-3
94 134 5.471703079103E-3
94 135 5.230934364960887E-3
94 136 4.995206766193312E-3
94 137 4.76480486080035E-3
94 138 4.53998292177005E-3
94 139 4.32096521145483E-3
94 140 4.107946424861764E-3
94 141 3.901092271952699E-3
94 142 3.7005401884686075E-3
94 143 3.5064001643299895E-3
94 144 3.3187556783199905E-3
94 145 3.1376647275268414E-3
94 146 2.9631609399036283E-3
94 147 2.795254758291549E-3
94 148 2.633934684342309E-3
94 149 2.4791685709596527E-3
94 150 2.330904952152349E-3
94 151 2.1890743995435897E-3
94 152 2.0535908952067335E-3
94 153 1.9243532109863046E-3
94 154 1.8012462850076334E-3
94 155 1.6841425866698377E-3
94 156 1.5729034620464647E-3
94 157 1.4673804522774983E-3
94 158 1.367416578217387E-3
94 159 1.2728475852982531E-3
94 160 1.183503143267951E-3
94 161 1.0992079961619481E-3
94 162 1.0197830585595082E-3
94 163 9.450464548521614E-4
94 164 8.748144989104668E-4
94 165 8.089026121686099E-4
94 166 7.471261787510978E-4
94 167 6.893013368380249E-4
94 168 6.352457060019391E-4
94 169 5.847790507477894E-4
94 170 5.377238809458774E-4
94 171 4.939059902648149E-4
94 172 4.531549340864822E-4
94 173 4.153044487175457E-4
94 174 3.801928140025063E-4
94 175 3.4766316169206583E-4
94 176 3.175637321289198E-4
94 177 2.8974808198221224E-4
94 178 2.64075245893548E-4
94 179 2.404098549935424E-4
94 180 2.186222153105597E-4
94 181 1.9858834912484408E-4
94 182 1.801900023241393E-4
94 183 1.6331462079362345E-4
94 184 1.478552988261544E-4
94 185 1.3371070247100844E-4
94 186 1.2078497065307907E-4
94 187 1.0898759679241744E-4
94 188 9.8233293538506E-5
94 189 8.844184310713185E-5
94 190 7.953793557242816E-5
94 191 7.145099732471724E-5
94 192 6.41150117582164E-5
94 193 5.746833410330014E-5
94 194 5.1453502167554E-5
95 1 1.8667513664563786E-4
95 2 1.885255323648456E-4
95 3 1.922359679777963E-4
95 4 1.9782571422922483E-4
95 5 2.0532363292945455E-4
95 6 1.6331462079362345E-4
95 7 1.801900023241393E-4
95 8 1.9858834912484408E-4
95 9 2.186222153105597E-4
95 10 2.404098549935424E-4
95 11 2.64075245893548E-4
95 12 2.8974808198221224E-4
95 13 3.175637321289198E-4
95 14 3.4766316169206583E-4
95 15 3.801928140025063E-4
95 16 4.153044487175457E-4
95 17 4.531549340864822E-4
95 18 4.939059902648149E-4
95 19 5.377238809458774E-4
95 20 5.847790507477894E-4
95 21 6.352457060019391E-4
95 22 6.893013368380249E-4
95 23 7.471261787510978E-4
95 24 8.089026121686099E-4
95 25 8.748144989104668E-4
95 26 9.450464548521614E-4
95 27 1.0197830585595082E-3
95 28 1.0992079961619481E-3
95 29 1.183503143267951E-3
95 30 1.2728475852982531E-3
95 31 1.367416578217387E-3
95 32 1.4673804522774983E-3
95 33 1.5729034620464647E-3
95 34 1.6841425866698377E-3
95 35 1.8012462850076334E-3
95 36 1.9243532109863046E-3
95 37 2.0535908952067335E-3
95 38 2.1890743995435897E-3
95 39 2.330904952152349E-3
95 40 2.4791685709596527E-3
95 41 2.633934684342309E-3
95 42 2.795254758291549E-3
95 43 2.9631609399036283E-3
95 44 3.1376647275268414E-3
95 45 3.3187556783199905E-3
95 46 3.5064001643299895E-3
95 47 3.7005401884686075E-3
95 48 3.901092271952699E-3
95 49 4.107946424861764E-3
95 50 4.32096521145483E-3
95 51 4.53998292177005E-3
95 52 4.76480486080035E-3
95 53 4.995206766193312E-3
95 54 5.230934364960887E-3
95 55 5.471703079103E-3
95 56 5.717197889348822E-3
95 57 5.967073365401693E-3
95 58 6.220953870141162E-3
95 59 6.478433944192542E-3
95 60 6.739078876126403E-3
95 61 7.002425462304573E-3
95 62 7.267982959054018E-3
95 63 7.535234228435287E-3
95 64 7.803637077389106E-3
95 65 8.072625788505754E-3
95 66 8.341612839080366E-3
95 67 8.609990803507927E-3
95 68 8.87713443244969E-3
95 69 9.142402900584164E-3
95 70 9.405142213157209E-3
95 71 9.664687759983982E-3
95 72 9.920367004047512E-3
95 73 1.0171502290401539E-2
95 74 1.0417413759735424E-2
95 75 1.0657422349712599E-2
95 76 1.0890852866066733E-2
95 77 1.1117037104445721E-2
95 78 1.1335317003146307E-2
95 79 1.1545047806193727E-2
95 80 1.174560121570136E-2
95 81 1.1936368512104304E-2
95 82 1.211676362070477E-2
95 83 1.2286226103001317E-2
95 84 1.2444224051501605E-2
95 85 1.2590256867140038E-2
95 86 1.2723857899036553E-2
95 87 1.2844596927137332E-2
95 88 1.2952082469266922E-2
95 89 1.3045963895286368E-2
95 90 1.3125933332383884E-2
95 91 1.3191727347011566E-2
95 92 1.3243128390610169E-2
95 93 1.3279965998018756E-2
95 94 1.33021177293305E-2
95 95 1.330950984791183E-2
95 96 1.33021177293305E-2
95 97 1.3279965998018756E-2
95 98 1.3243128390610169E-2
95 99 1.3191727347011566E-2
95 100 1.3125933332383884E-2
95 101 1.3045963895286368E-2
95 102 1.2952082469266922E-2
95 103 1.2844596927137332E-2
95 104 1.2723857899036553E-2
95 105 1.2590256867140038E-2
95 106 1.2444224051501605E-2
95 107 1.2286226103001317E-2
95 108 1.211676362070477E-2
95 109 1.1936368512104304E-2
95 110 1.174560121570136E-2
95 111 1.1545047806193727E-2
95 112 1.1335317003146307E-2
95 113 1.1117037104445721E-2
95 114 1.0890852866066733E-2
95 115 1.0657422349712599E-2
95 116 1.0417413759735424E-2
95 117 1.0171502290401539E-2
95 118 9.920367004047512E-3
95 119 9.664687759983982E-3
95 120 9.405142213157209E-3
95 121 9.142402900584164E-3
95 122 8.87713443244969E-3
95 123 8.609990803507927E-3
95 124 8.341612839080366E-3
95 125 8.072625788505754E-3
95 126 7.803637077389106E-3
95 127 7.535234228435287E-3
95 128 7.267982959054018E-3
95 129 7.002425462304573E-3
95 130 6.739078876126403E-3
95 131 6.478433944192542E-3
95 132 6.220953870141162E-3
95 133 5.967073365401693E-3
95 134 5.717197889348822E-3
95 135 5.471703079103E-3
95 136 5.230934364960887E-3
95 137 4.995206766193312E-3
95 138 4.76480486080035E-3
95 139 4.53998292177005E-3
95 140 4.32096521145483E-3
95 141 4.107946424861764E-3
95 142 3.901092271952699E-3
95 143 3.7005401884686075E-3
95 144 3.5064001643299895E-3
95 145 3.3187556783199905E-3
95 146 3.1376647275268414E-3
95 147 2.9631609399036283E-3
95 148 2.795254758291549E-3
95 149 2.633934684342309E-3
95 150 2.4791685709596527E-3
95 151 2.330904952152349E-3
95 152 2.1890743995435897E-3
95 153 2.0535908952067335E-3
95 154 1.9243532109863046E-3
95 155 1.8012462850076334E-3
95 156 1.6841425866698377E-3
95 157 1.5729034620464647E-3
95 158 1.4673804522774983E-3
95 159 1.367416578217387E-3
95 160 1.2728475852982531E-3
95 161 1.183503143267951E-3
95 162 1.0992079961619481E-3
95 163 1.0197830585595082E-3
95 164 9.450464548521614E-4
95 165 8.748144989104668E-4
95 166 8.089026121686099E-4
95 167 7.471261787510978E-4
95 168 6.893013368380249E-4
95 169 6.352457060019391E-4
95 170 5.847790507477894E-4
95 171 5.377238809458774E-4
95 172 4.939059902648149E-4
95 173 4.531549340864822E-4
95 174 4.153044487175457E-4
95 175 3.801928140025063E-4
95 176 3.4766316169206583E-4
95 177 3.175637321289198E-4
95 178 2.8974808198221224E-4
95 179 2.64075245893548E-4
95 180 2.404098549935424E-4
95 181 2.186222153105597E-4
95 182 1.9858834912484408E-4
95 183 1.801900023241393E-4
95 184 1.6331462079362345E-4
95 185 1.478552988261544E-4
95 186 1.3371070247100844E-4
95 187 1.2078497065307907E-4
95 188 1.0898759679241744E-4
95 189 9.8233293538506E-5
95 190 8.844184310713185E-5
95 191 7.953793557242816E-5
95 192 7.145099732471724E-5
95 193 6.41150117582164E-5
95 194 5.746833410330014E-5
95 195 5.1453502167554E-5
96 1 1.6797977867956003E-4
96 2 1.6968429086322323E-4
96 3 1.7310260855063383E-4
96 4 1.7825330475637922E-4
96 5 1.3371070247100844E-4
96 6 1.478552988261544E-4
96 7 1.6331462079362345E-4
96 8 1.801900023241393E-4
96 9 1.9858834912484408E-4
96 10 2.186222153105597E-4
96 11 2.404098549935424E-4
96 12 2.64075245893548E-4
96 13 2.8974808198221224E-4
96 14 3.175637321289198E-4
96 15 3.4766316169206583E-4
96 16 3.801928140025063E-4
96 17 4.153044487175457E-4
96 18 4.531549340864822E-4
96 19 4.939059902648149E-4
96 20 5.377238809458774E-4
96 21 5.847790507477894E-4
96 22 6.352457060019391E-4
96 23 6.893013368380249E-4
96 24 7.471261787510978E-4
96 25 8.089026121686099E-4
96 26 8.748144989104668E-4
96 27 9.450464548521614E-4
96 28 1.0197830585595082E-3
96 29 1.0992079961619481E-3
96 30 1.183503143267951E-3
96 31 1.2728475852982531E-3
96 32 1.367416578217387E-3
96 33 1.4673804522774983E-3
96 34 1.5729034620464647E-3
96 35 1.6841425866698377E-3
96 36 1.8012462850076334E-3
96 37 1.9243532109863046E-3
96 38 2.0535908952067335E-3
96 39 2.1890743995435897E-3
96 40 2.330904952152349E-3
96 41 2.4791685709596527E-3
96 42 2.633934684342309E-3
96 43 2.795254758291549E-3
96 44 2.9631609399036283E-3
96 45 3.1376647275268414E-3
96 46 3.3187556783199905E-3
96 47 3.5064001643299895E-3
96 48 3.7005401884686075E-3
96 49 3.901092271952699E-3
96 50 4.107946424861764E-3
96 51 4.32096521145483E-3
96 52 4.53998292177005E-3
96 53 4.76480486080035E-3
96 54 4.995206766193312E-3
96 55 5.230934364960887E-3
96 56 5.471703079103E-3
96 57 5.717197889348822E-3
96 58 5.967073365401693E-3
96 59 6.220953870141162E-3
96 60 6.478433944192542E-3
96 61 6.739078876126403E-3
96 62 7.002425462304573E-3
96 63 7.267982959054018E-3
96 64 7.535234228435287E-3
96 65 7.803637077389106E-3
96 66 8.072625788505754E-3
96 67 8.341612839080366E-3
96 68 8.609990803507927E-3
96 69 8.87713443244969E-3
96 70 9.142402900584164E-3
96 71 9.405142213157209E-3
96 72 9.664687759983982E-3
96 73 9.920367004047512E-3
96 74 1.0171502290401539E-2
96 75 1.0417413759735424E-2
96 76 1.0657422349712599E-2
96 77 1.0890852866066733E-2
96 78 1.1117037104445721E-2
96 79 1.1335317003146307E-2
96 80 1.1545047806193727E-2
96 81 1.174560121570136E-2
96 82 1.1936368512104304E-2
96 83 1.211676362070477E-2
96 84 1.2286226103001317E-2
96 85 1.2444224051501605E-2
96 86 1.2590256867140038E-2
96 87 1.2723857899036553E-2
96 88 1.2844596927137332E-2
96 89 1.2952082469266922E-2
96 90 1.3045963895286368E-2
96 91 1.3125933332383884E-2
96 92 1.3191727347011566E-2
96 93 1.3243128390610169E-2
96 94 1.3279965998018756E-2
96 95 1.33021177293305E-2
96 96 1.330950984791183E-2
96 97 1.33021177293305E-2
96 98 1.3279965998018756E-2
96 99 1.3243128390610169E-2
96 100 1.3191727347011566E-2
96 101 1.3125933332383884E-2
96 102 1.3045963895286368E-2
96 103 1.2952082469266922E-2
96 104 1.2844596927137332E-2
96 105 1.2723857899036553E-2
96 106 1.2590256867140038E-2
96 107 1.2444224051501605E-2
96 108 1.2286226103001317E-2
96 109 1.211676362070477E-2
96 110 1.1936368512104304E-2
96 111 1.174560121570136E-2
96 112 1.1545047806193727E-2
96 113 1.1335317003146307E-2
96 114 1.1117037104445721E-2
96 115 1.0890852866066733E-2
96 116 1.0657422349712599E-2
96 117 1.0417413759735424E-2
96 118 1.0171502290401539E-2
96 119 9.920367004047512E-3
96 120 9.664687759983982E-3
96 121 9.405142213157209E-3
96 122 9.142402900584164E-3
96 123 8.87713443244969E-3
96 124 8.609990803507927E-3
96 125 8.341612839080366E-3
96 126 8.072625788505754E-3
96 127 7.803637077389106E-3
96 128 7.535234228435287E-3
96 129 7.267982959054018E-3
96 130 7.002425462304573E-3
96 131 6.739078876126403E-3
96 132 6.478433944192542E-3
96 133 6.220953870141162E-3
96 134 5.967073365401693E-3
96 135 5.717197889348822E-3
96 136 5.471703079103E-3
96 137 5.230934364960887E-3
96 138 4.995206766193312E-3
96 139 4.76480486080035E-3
96 140 4.53998292177005E-3
96 141 4.32096521145483E-3
96 142 4.107946424861764E-3
96 143 3.901092271952699E-3
96 144 3.7005401884686075E-3
96 145 3.5064001643299895E-3
96 146 3.3187556783199905E-3
96 147 3.1376647275268414E-3
96 148 2.9631609399036283E-3
96 149 2.795254758291549E-3
96 150 2.633934684342309E-3
96 151 2.4791685709596527E-3
96 152 2.330904952152349E-3
96 153 2.1890743995435897E-3
96 154 2.0535908952067335E-3
96 155 1.9243532109863046E-3
96 156 1.8012462850076334E-3
96 157 1.6841425866698377E-3
96 158 1.5729034620464647E-3
96 159 1.4673804522774983E-3
96 160 1.367416578217387E-3
96 161 1.2728475852982531E-3
96 162 1.183503143267951E-3
96 163 1.0992079961619481E-3
96 164 1.0197830585595082E-3
96 165 9.450464548521614E-4
96 166 8.748144989104668E-4
96 167 8.089026121686099E-4
96 168 7.471261787510978E-4
96 169 6.893013368380249E-4
96 170 6.352457060019391E-4
96 171 5.847790507477894E-4
96 172 5.377238809458774E-4
96 173 4.939059902648149E-4
96 174 4.531549340864822E-4
96 175 4.153044487175457E-4
96 176 3.801928140025063E-4
96 177 3.4766316169206583E-4
96 178 3.175637321289198E-4
96 179 2.8974808198221224E-4
96 180 2.64075245893548E-4
96 181 2.404098549935424E-4
96 182 2.186222153105597E-4
96 183 1.9858834912484408E-4
96 184 1.801900023241393E-4
96 185 1.6331462079362345E-4
96 186 1.478552988261544E-4
96 187 1.3371070247100844E-4
96 188 1.2078497065307907E-4
96 189 1.0898759679241744E-4
96 190 9.8233293538506E-5
96 191 8.844184310713185E-5
96 192 7.953793557242816E-5
96 193 7.145099732471724E-5
96 194 6.41150117582164E-5
96 195 5.746833410330014E-5
96 196 5.1453502167554E-5
97 1 1.509889328971454E-4
97 2 1.5255685486534825E-4
97 3 1.5570162764180613E-4
97 4 1.0898759679241744E-4
97 5 1.2078497065307907E-4
97 6 1.3371070247100844E-4
97 7 1.478552988261544E-4
97 8 1.6331462079362345E-4
97 9 1.801900023241393E-4
97 10 1.9858834912484408E-4
97 11 2.186222153105597E-4
97 12 2.404098549935424E-4
97 13 2.64075245893548E-4
97 14 2.8974808198221224E-4
97 15 3.175637321289198E-4
97 16 3.4766316169206583E-4
97 17 3.801928140025063E-4
97 18 4.153044487175457E-4
97 19 4.531549340864822E-4
97 20 4.939059902648149E-4
97 21 5.377238809458774E-4
97 22 5.847790507477894E-4
97 23 6.352457060019391E-4
97 24 6.893013368380249E-4
97 25 7.471261787510978E-4
97 26 8.089026121686099E-4
97 27 8.748144989104668E-4
97 28 9.450464548521614E-4
97 29 1.0197830585595082E-3
97 30 1.0992079961619481E-3
97 31 1.183503143267951E-3
97 32 1.2728475852982531E-3
97 33 1.367416578217387E-3
97 34 1.4673804522774983E-3
97 35 1.5729034620464647E-3
97 36 1.6841425866698377E-3
97 37 1.8012462850076334E-3
97 38 1.9243532109863046E-3
97 39 2.0535908952067335E-3
97 40 2.1890743995435897E-3
97 41 2.330904952152349E-3
97 42 2.4791685709596527E-3
97 43 2.633934684342309E-3
97 44 2.795254758291549E-3
97 45 2.9631609399036283E-3
97 46 3.1376647275268414E-3
97 47 3.3187556783199905E-3
97 48 3.5064001643299895E-3
97 49 3.7005401884686075E-3
97 50 3.901092271952699E-3
97 51 4.107946424861764E-3
97 52 4.32096521145483E-3
97 53 4.53998292177005E-3
97 54 4.76480486080035E-3
97 55 4.995206766193312E-3
97 56 5.230934364960887E-3
97 57 5.471703079103E-3
97 58 5.717197889348822E-3
97 59 5.967073365401693E-3
97 60 6.220953870141162E-3
97 61 6.478433944192542E-3
97 62 6.739078876126403E-3
97 63 7.002425462304573E-3
97 64 7.267982959054018E-3
97 65 7.535234228435287E-3
97 66 7.803637077389106E-3
97 67 8.072625788505754E-3
97 68 8.341612839080366E-3
97 69 8.609990803507927E-3
97 70 8.87713443244969E-3
97 71 9.142402900584164E-3
97 72 9.405142213157209E-3
97 73 9.664687759983982E-3
97 74 9.920367004047512E-3
97 75 1.0171502290401539E-2
97 76 1.0417413759735424E-2
97 77 1.0657422349712599E-2
97 78 1.0890852866066733E-2
97 79 1.1117037104445721E-2
97 80 1.1335317003146307E-2
97 81 1.1545047806193727E-2
97 82 1.174560121570136E-2
97 83 1.1936368512104304E-2
97 84 1.211676362070477E-2
97 85 1.2286226103001317E-2
97 86 1.2444224051501605E-2
97 87 1.2590256867140038E-2
97 88 1.2723857899036553E-2
97 89 1.2844596927137332E-2
97 90 1.2952082469266922E-2
97 91 1.3045963895286368E-2
97 92 1.3125933332383884E-2
97 93 1.3191727347011566E-2
97 94 1.3243128390610169E-2
97 95 1.3279965998018756E-2
97 96 1.33021177293305E-2
97 97 1.330950984791183E-2
97 98 1.33021177293305E-2
97 99 1.3279965998018756E-2
97 100 1.3243128390610169E-2
97 101 1.3191727347011566E-2
97 102 1.3125933332383884E-2
97 103 1.3045963895286368E-2
97 104 1.2952082469266922E-2
97 105 1.2844596927137332E-2
97 106 1.2723857899036553E-2
97 107 1.2590256867140038E-2
97 108 1.2444224051501605E-2
97 109 1.2286226103001317E-2
97 110 1.211676362070477E-2
97 111 1.1936368512104304E-2
97 112 1.174560121570136E-2
97 113 1.1545047806193727E-2
97 114 1.1335317003146307E-2
97 115 1.1117037104445721E-2
97 116 1.0890852866066733E-2
97 117 1.0657422349712599E-2
97 118 1.0417413759735424E-2
97 119 1.0171502290401539E-2
97 120 9.920367004047512E-3
97 121 9.664687759983982E-3
97 122 9.405142213157209E-3
97 123 9.142402900584164E-3
97 124 8.87713443244969E-3
97 125 8.609990803507927E-3
97 126 8.341612839080366E-3
97 127 8.072625788505754E-3
97 128 7.803637077389106E-3
97 129 7.535234228435287E-3
97 130 7.267982959054018E-3
97 131 7.002425462304573E-3
97 132 6.739078876126403E-3
97 133 6.478433944192542E-3
97 134 6.220953870141162E-3
97 135 5.967073365401693E-3
97 136 5.717197889348822E-3
97 137 5.471703079103E-3
97 138 5.230934364960887E-3
97 139 4.995206766193312E-3
97 140 4.76480486080035E-3
97 141 4.53998292177005E-3
97 142 4.32096521145483E-3
97 143 4.107946424861764E-3
97 144 3.901092271952699E-3
97 145 3.7005401884686075E-3
97 146 3.5064001643299895E-3
97 147 3.3187556783199905E-3
97 148 3.1376647275268414E-3
97 149 2.9631609399036283E-3
97 150 2.795254758291549E-3
97 151 2.633934684342309E-3
97 152 2.4791685709596527E-3
97 153 2.330904952152349E-3
97 154 2.1890743995435897E-3
97 155 2.0535908952067335E-3
97 156 1.9243532109863046E-3
97 157 1.8012462850076334E-3
97 158 1.6841425866698377E-3
97 159 1.5729034620464647E-3
97 160 1.4673804522774983E-3
97 161 1.367416578217387E-3
97 162 1.2728475852982531E-3
97 163 1.183503143267951E-3
97 164 1.0992079961619481E-3
97 165 1.0197830585595082E-3
97 166 9.450464548521614E-4
97 167 8.748144989104668E-4
97 168 8.089026121686099E-4
97 169 7.471261787510978E-4
97 170 6.893013368380249E-4
97 171 6.352457060019391E-4
97 172 5.847790507477894E-4
97 173 5.377238809458774E-4
97 174 4.939059902648149E-4
97 175 4.531549340864822E-4
97 176 4.153044487175457E-4
97 177 3.801928140025063E-4
97 178 3.4766316169206583E-4
97 179 3.175637321289198E-4
97 180 2.8974808198221224E-4
97 181 2.64075245893548E-4
97 182 2.404098549935424E-4
97 183 2.186222153105597E-4
97 184 1.9858834912484408E-4
97 185 1.801900023241393E-4
97 186 1.6331462079362345E-4
97 187 1.478552988261544E-4
97 188 1.3371070247100844E-4
97 189 1.2078497065307907E-4
97 190 1.0898759679241744E-4
97 191 9.8233293538506E-5
97 192 8.844184310713185E-5
97 193 7.953793557242816E-5
97 194 7.145099732471724E-5
97 195 6.41150117582164E-5
97 196 5.746833410330014E-5
97 197 5.1453502167554E-5
98 1 1.3556600908293362E-4
98 2 1.370062696757283E-4
98 3 8.844184310713185E-5
98 4 9.8233293538506E-5
98 5 1.0898759679241744E-4
98 6 1.2078497065307907E-4
98 7 1.3371070247100844E-4
98 8 1.478552988261544E-4
98 9 1.6331462079362345E-4
98 10 1.801900023241393E-4
98 11 1.9858834912484408E-4
98 12 2.186222153105597E-4
98 13 2.404098549935424E-4
98 14 2.64075245893548E-4
98 15 2.8974808198221224E-4
98 16 3.175637321289198E-4
98 17 3.4766316169206583E-4
98 18 3.801928140025063E-4
98 19 4.153044487175457E-4
98 20 4.531549340864822E-4
98 21 4.939059902648149E-4
98 22 5.377238809458774E-4
98 23 5.847790507477894E-4
98 24 6.352457060019391E-4
98 25 6.893013368380249E-4
98 26 7.471261787510978E-4
98 27 8.089026121686099E-4
98 28 8.748144989104668E-4
98 29 9.450464548521614E-4
98 30 1.0197830585595082E-3
98 31 1.0992079961619481E-3
98 32 1.183503143267951E-3
98 33 1.2728475852982531E-3
98 34 1.367416578217387E-3
98 35 1.4673804522774983E-3
98 36 1.5729034620464647E-3
98 37 1.6841425866698377E-3
98 38 1.8012462850076334E-3
98 39 1.9243532109863046E-3
98 40 2.0535908952067335E-3
98 41 2.1890743995435897E-3
98 42 2.330904952152349E-3
98 43 2.4791685709596527E-3
98 44 2.633934684342309E-3
98 45 2.795254758291549E-3
98 46 2.9631609399036283E-3
98 47 3.1376647275268414E-3
98 48 3.3187556783199905E-3
98 49 3.5064001643299895E-3
98 50 3.7005401884686075E-3
98 51 3.901092271952699E-3
98 52 4.107946424861764E-3
98 53 4.32096521145483E-3
98 54 4.53998292177005E-3
98 55 4.76480486080035E-3
98 56 4.995206766193312E-3
98 57 5.230934364960887E-3
98 58 5.471703079103E-3
98 59 5.717197889348822E-3
98 60 5.967073365401693E-3
98 61 6.220953870141162E-3
98 62 6.478433944192542E-3
98 63 6.739078876126403E-3
98 64 7.002425462304573E-3
98 65 7.267982959054018E-3
98 66 7.535234228435287E-3
98 67 7.803637077389106E-3
98 68 8.072625788505754E-3
98 69 8.341612839080366E-3
98 70 8.609990803507927E-3
98 71 8.87713443244969E-3
98 72 9.142402900584164E-3
98 73 9.405142213157209E-3
98 74 9.664687759983982E-3
98 75 9.920367004047512E-3
98 76 1.0171502290401539E-2
98 77 1.0417413759735424E-2
98 78 1.0657422349712599E-2
98 79 1.0890852866066733E-2
98 80 1.1117037104445721E-2
98 81 1.1335317003146307E-2
98 82 1.1545047806193727E-2
98 83 1.174560121570136E-2
98 84 1.1936368512104304E-2
98 85 1.211676362070477E-2
98 86 1.2286226103001317E-2
98 87 1.2444224051501605E-2
98 88 1.2590256867140038E-2
98 89 1.2723857899036553E-2
98 90 1.2844596927137332E-2
98 91 1.2952082469266922E-2
98 92 1.3045963895286368E-2
98 93 1.3125933332383884E-2
98 94 1.3191727347011566E-2
98 95 1.3243128390610169E-2
98 96 1.3279965998018756E-2
98 97 1.33021177293305E-2
98 98 1.330950984791183E-2
98 99 1.33021177293305E-2
98 100 1.3279965998018756E-2
98 101 1.3243128390610169E-2
98 102 1.3191727347011566E-2
98 103 1.3125933332383884E-2
98 104 1.3045963895286368E-2
98 105 1.2952082469266922E-2
98 106 1.2844596927137332E-2
98 107 1.2723857899036553E-2
98 108 1.2590256867140038E-2
98 109 1.2444224051501605E-2
98 110 1.2286226103001317E-2
98 111 1.211676362070477E-2
98 112 1.1936368512104304E-2
98 113 1.174560121570136E-2
98 114 1.1545047806193727E-2
98 115 1.1335317003146307E-2
98 116 1.1117037104445721E-2
98 117 1.0890852866066733E-2
98 118 1.0657422349712599E-2
98 119 1.0417413759735424E-2
98 120 1.0171502290401539E-2
98 121 9.920367004047512E-3
98 122 9.664687759983982E-3
98 123 9.405142213157209E-3
98 124 9.142402900584164E-3
98 125 8.87713443244969E-3
98 126 8.609990803507927E-3
98 127 8.341612839080366E-3
98 128 8.072625788505754E-3
98 129 7.803637077389106E-3
98 130 7.535234228435287E-3
98 131 7.267982959054018E-3
98 132 7.002425462304573E-3
98 133 6.739078876126403E-3
98 134 6.478433944192542E-3
98 135 6.220953870141162E-3
98 136 5.967073365401693E-3
98 137 5.717197889348822E-3
98 138 5.471703079103E-3
98 139 5.230934364960887E-3
98 140 4.995206766193312E-3
98 141 4.76480486080035E-3
98 142 4.53998292177005E-3
98 143 4.32096521145483E-3
98 144 4.107946424861764E-3
98 145 3.901092271952699E-3
98 146 3.7005401884686075E-3
98 147 3.5064001643299895E-3
98 148 3.3187556783199905E-3
98 149 3.1376647275268414E-3
98 150 2.9631609399036283E-3
98 151 2.795254758291549E-3
98 152 2.633934684342309E-3
98 153 2.4791685709596527E-3
98 154 2.330904952152349E-3
98 155 2.1890743995435897E-3
98 156 2.0535908952067335E-3
98 157 1.9243532109863046E-3
98 158 1.8012462850076334E-3
98 159 1.6841425866698377E-3
98 160 1.5729034620464647E-3
98 161 1.4673804522774983E-3
98 162 1.367416578217387E-3
98 163 1.2728475852982531E-3
98 164 1.183503143267951E-3
98 165 1.0992079961619481E-3
98 166 1.0197830585595082E-3
98 167 9.450464548521614E-4
98 168 8.748144989104668E-4
98 169 8.089026121686099E-4
98 170 7.471261787510978E-4
98 171 6.893013368380249E-4
98 172 6.352457060019391E-4
98 173 5.847790507477894E-4
98 174 5.377238809458774E-4
98 175 4.939059902648149E-4
98 176 4.531549340864822E-4
98 177 4.153044487175457E-4
98 178 3.801928140025063E-4
98 179 3.4766316169206583E-4
98 180 3.175637321289198E-4
98 181 2.8974808198221224E-4
98 182 2.64075245893548E-4
98 183 2.404098549935424E-4
98 184 2.186222153105597E-4
98 185 1.9858834912484408E-4
98 186 1.801900023241393E-4
98 187 1.6331462079362345E-4
98 188 1.478552988261544E-4
98 189 1.3371070247100844E-4
98 190 1.2078497065307907E-4
98 191 1.0898759679241744E-4
98 192 9.8233293538506E-5
98 193 8.844184310713185E-5
98 194 7.953793557242816E-5
98 195 7.145099732471724E-5
98 196 6.41150117582164E-5
98 197 5.746833410330014E-5
98 198 5.1453502167554E-5
99 1 1.2158334586151654E-4
99 2 7.145099732471724E-5
99 3 7.953793557242816E-5
99 4 8.844184310713185E-5
99 5 9.8233293538506E-5
99 6 1.0898759679241744E-4
99 7 1.2078497065307907E-4
99 8 1.3371070247100844E-4
99 9 1.478552988261544E-4
99 10 1.6331462079362345E-4
99 11 1.801900023241393E-4
99 12 1.9858834912484408E-4
99 13 2.186222153105597E-4
99 14 2.404098549935424E-4
99 15 2.64075245893548E-4
99 16 2.8974808198221224E-4
99 17 3.175637321289198E-4
99 18 3.4766316169206583E-4
99 19 3.801928140025063E-4
99 20 4.153044487175457E-4
99 21 4.531549340864822E-4
99 22 4.939059902648149E-4
99 23 5.377238809458774E-4
99 24 5.847790507477894E-4
99 25 6.352457060019391E-4
99 26 6.893013368380249E-4
99 27 7.471261787510978E-4
99 28 8.089026121686099E-4
99 29 8.748144989104668E-4
99 30 9.450464548521614E-4
99 31 1.0197830585595082E-3
99 32 1.0992079961619481E-3
99 33 1.183503143267951E-3
99 34 1.2728475852982531E-3
99 35 1.367416578217387E-3
99 36 1.4673804522774983E-3
99 37 1.5729034620464647E-3
99 38 1.6841425866698377E-3
99 39 1.8012462850076334E-3
99 40 1.9243532109863046E-3
99 41 2.0535908952067335E-3
99 42 2.1890743995435897E-3
99 43 2.330904952152349E-3
99 44 2.4791685709596527E-3
99 45 2.633934684342309E-3
99 46 2.795254758291549E-3
99 47 2.9631609399036283E-3
99 48 3.1376647275268414E-3
99 49 3.3187556783199905E-3
99 50 3.5064001643299895E-3
99 51 3.7005401884686075E-3
99 52 3.901092271952699E-3
99 53 4.107946424861764E-3
99 54 4.32096521145483E-3
99 55 4.53998292177005E-3
99 56 4.76480486080035E-3
99 57 4.995206766193312E-3
99 58 5.230934364960887E-3
99 59 5.471703079103E-3
99 60 5.717197889348822E-3
99 61 5.967073365401693E-3
99 62 6.220953870141162E-3
99 63 6.478433944192542E-3
99 64 6.739078876126403E-3
99 65 7.002425462304573E-3
99 66 7.267982959054018E-3
99 67 7.535234228435287E-3
99 68 7.803637077389106E-3
99 69 8.072625788505754E-3
99 70 8.341612839080366E-3
99 71 8.609990803507927E-3
99 72 8.87713443244969E-3
99 73 9.142402900584164E-3
99 74 9.405142213157209E-3
99 75 9.664687759983982E-3
99 76 9.920367004047512E-3
99 77 1.0171502290401539E-2
99 78 1.0417413759735424E-2
99 79 1.0657422349712599E-2
99 80 1.0890852866066733E-2
99 81 1.1117037104445721E-2
99 82 1.1335317003146307E-2
99 83 1.1545047806193727E-2
99 84 1.174560121570136E-2
99 85 1.1936368512104304E-2
99 86 1.211676362070477E-2
99 87 1.2286226103001317E-2
99 88 1.2444224051501605E-2
99 89 1.2590256867140038E-2
99 90 1.2723857899036553E-2
99 91 1.2844596927137332E-2
99 92 1.2952082469266922E-2
99 93 1.3045963895286368E-2
99 94 1.3125933332383884E-2
99 95 1.3191727347011566E-2
99 96 1.3243128390610169E-2
99 97 1.3279965998018756E-2
99 98 1.33021177293305E-2
99 99 1.330950984791183E-2
99 100 1.33021177293305E-2
99 101 1.3279965998018756E-2
99 102 1.3243128390610169E-2
99 103 1.3191727347011566E-2
99 104 1.3125933332383884E-2
99 105 1.3045963895286368E-2
99 106 1.2952082469266922E-2
99 107 1.2844596927137332E-2
99 108 1.2723857899036553E-2
99 109 1.2590256867140038E-2
99 110 1.2444224051501605E-2
99 111 1.2286226103001317E-2
99 112 1.211676362070477E-2
99 113 1.1936368512104304E-2
99 114 1.174560121570136E-2
99 115 1.1545047806193727E-2
99 116 1.1335317003146307E-2
99 117 1.1117037104445721E-2
99 118 1.0890852866066733E-2
99 119 1.0657422349712599E-2
99 120 1.0417413759735424E-2
99 121 1.0171502290401539E-2
99 122 9.920367004047512E-3
99 123 9.664687759983982E-3
99 124 9.405142213157209E-3
99 125 9.142402900584164E-3
99 126 8.87713443244969E-3
99 127 8.609990803507927E-3
99 128 8.341612839080366E-3
99 129 8.072625788505754E-3
99 130 7.803637077389106E-3
99 131 7.535234228435287E-3
99 132 7.267982959054018E-3
99 133 7.002425462304573E-3
99 134 6.739078876126403E-3
99 135 6.478433944192542E-3
99 136 6.220953870141162E-3
99 137 5.967073365401693E-3
99 138 5.717197889348822E-3
99 139 5.471703079103E-3
99 140 5.230934364960887E-3
99 141 4.995206766193312E-3
99 142 4.76480486080035E-3
99 143 4.53998292177005E-3
99 144 4.32096521145483E-3
99 145 4.107946424861764E-3
99 146 3.901092271952699E-3
99 147 3.7005401884686075E-3
99 148 3.5064001643299895E-3
99 149 3.3187556783199905E-3
99 150 3.1376647275268414E-3
99 151 2.9631609399036283E-3
99 152 2.795254758291549E-3
99 153 2.633934684342309E-3
99 154 2.4791685709596527E-3
99 155 2.330904952152349E-3
99 156 2.1890743995435897E-3
99 157 2.0535908952067335E-3
99 158 1.9243532109863046E-3
99 159 1.8012462850076334E-3
99 160 1.6841425866698377E-3
99 161 1.5729034620464647E-3
99 162 1.4673804522774983E-3
99 163 1.367416578217387E-3
99 164 1.2728475852982531E-3
99 165 1.183503143267951E-3
99 166 1.0992079961619481E-3
99 167 1.0197830585595082E-3
99 168 9.450464548521614E-4
99 169 8.748144989104668E-4
99 170 8.089026121686099E-4
99 171 7.471261787510978E-4
99 172 6.893013368380249E-4
99 173 6.352457060019391E-4
99 174 5.847790507477894E-4
99 175 5.377238809458774E-4
99 176 4.939059902648149E-4
99 177 4.531549340864822E-4
99 178 4.153044487175457E-4
99 179 3.801928140025063E-4
99 180 3.4766316169206583E-4
99 181 3.175637321289198E-4
99 182 2.8974808198221224E-4
99 183 2.64075245893548E-4
99 184 2.404098549935424E-4
99 185 2.186222153105597E-4
99 186 1.9858834912484408E-4
99 187 1.801900023241393E-4
99 188 1.6331462079362345E-4
99 189 1.478552988261544E-4
99 190 1.3371070247100844E-4
99 191 1.2078497065307907E-4
99 192 1.0898759679241744E-4
99 193 9.8233293538506E-5
99 194 8.844184310713185E-5
99 195 7.953793557242816E-5
99 196 7.145099732471724E-5
99 197 6.41150117582164E-5
99 198 5.746833410330014E-5
99 199 5.1453502167554E-5
100 1 5.746833410330014E-5
100 2 6.41150117582164E-5
100 3 7.145099732471724E-5
100 4 7.953793557242816E-5
100 5 8.844184310713185E-5
100 6 9.8233293538506E-5
100 7 1.0898759679241744E-4
100 8 1.2078497065307907E-4
100 9 1.3371070247100844E-4
100 10 1.478552988261544E-4
100 11 1.6331462079362345E-4
100 12 1.801900023241393E-4
100 13 1.9858834912484408E-4
100 14 2.186222153105597E-4
100 15 2.404098549935424E-4
100 16 2.64075245893548E-4
100 17 2.8974808198221224E-4
100 18 3.175637321289198E-4
100 19 3.4766316169206583E-4
100 20 3.801928140025063E-4
100 21 4.153044487175457E-4
100 22 4.531549340864822E-4
100 23 4.939059902648149E-4
100 24 5.377238809458774E-4
100 25 5.847790507477894E-4
100 26 6.352457060019391E-4
100 27 6.893013368380249E-4
100 28 7.471261787510978E-4
100 29 8.089026121686099E-4
100 30 8.748144989104668E-4
100 31 9.450464548521614E-4
100 32 1.0197830585595082E-3
100 33 1.0992079961619481E-3
100 34 1.183503143267951E-3
100 35 1.2728475852982531E-3
100 36 1.367416578217387E-3
100 37 1.4673804522774983E-3
100 38 1.5729034620464647E-3
100 39 1.6841425866698377E-3
100 40 1.8012462850076334E-3
100 41 1.9243532109863046E-3
100 42 2.0535908952067335E-3
100 43 2.1890743995435897E-3
100 44 2.330904952152349E-3
100 45 2.4791685709596527E-3
100 46 2.633934684342309E-3
100 47 2.795254758291549E-3
100 48 2.9631609399036283E-3
100 49 3.1376647275268414E-3
100 50 3.3187556783199905E-3
100 51 3.5064001643299895E-3
100 52 3.7005401884686075E-3
100 53 3.901092271952699E-3
100 54 4.107946424861764E-3
100 55 4.32096521145483E-3
100 56 4.53998292177005E-3
100 57 4.76480486080035E-3
100 58 4.995206766193312E-3
100 59 5.230934364960887E-3
100 60 5.471703079103E-3
100 61 5.717197889348822E-3
100 62 5.967073365401693E-3
100 63 6.220953870141162E-3
100 64 6.478433944192542E-3
100 65 6.739078876126403E-3
100 66 7.002425462304573E-3
100 67 7.267982959054018E-3
100 68 7.535234228435287E-3
100 69 7.803637077389106E-3
100 70 8.072625788505754E-3
100 71 8.341612839080366E-3
100 72 8.609990803507927E-3
100 73 8.87713443244969E-3
100 74 9.142402900584164E-3
100 75 9.405142213157209E-3
100 76 9.664687759983982E-3
100 77 9.920367004047512E-3
100 78 1.0171502290401539E-2
100 79 1.0417413759735424E-2
100 80 1.0657422349712599E-2
100 81 1.0890852866066733E-2
100 82 1.1117037104445721E-2
100 83 1.1335317003146307E-2
100 84 1.1545047806193727E-2
100 85 1.174560121570136E-2
100 86 1.1936368512104304E-2
100 87 1.211676362070477E-2
100 88 1.2286226103001317E-2
100 89 1.2444224051501605E-2
100 90 1.2590256867140038E-2
100 91 1.2723857899036553E-2
100 92 1.2844596927137332E-2
100 93 1.2952082469266922E-2
100 94 1.3045963895286368E-2
100 95 1.3125933332383884E-2
100 96 1.3191727347011566E-2
100 97 1.3243128390610169E-2
100 98 1.3279965998018756E-2
100 99 1.33021177293305E-2
100 100 1.330950984791183E-2
100 101 1.33021177293305E-2
100 102 1.3279965998018756E-2
100 103 1.3243128390610169E-2
100 104 1.3191727347011566E-2
100 105 1.3125933332383884E-2
100 106 1.3045963895286368E-2
100 107 1.2952082469266922E-2
100 108 1.2844596927137332E-2
100 109 1.2723857899036553E-2
100 110 1.2590256867140038E-2
100 111 1.2444224051501605E-2
100 112 1.2286226103001317E-2
100 113 1.211676362070477E-2
100 114 1.1936368512104304E-2
100 115 1.174560121570136E-2
100 116 1.1545047806193727E-2
100 117 1.1335317003146307E-2
100 118 1.1117037104445721E-2
100 119 1.0890852866066733E-2
100 120 1.0657422349712599E-2
100 121 1.0417413759735424E-2
100 122 1.0171502290401539E-2
100 123 9.920367004047512E-3
100 124 9.664687759983982E-3
100 125 9.405142213157209E-3
100 126 9.142402900584164E-3
100 127 8.87713443244969E-3
100 128 8.609990803507927E-3
100 129 8.341612839080366E-3
100 130 8.072625788505754E-3
100 131 7.803637077389106E-3
100 132 7.535234228435287E-3
100 133 7.267982959054018E-3
100 134 7.002425462304573E-3
100 135 6.739078876126403E-3
100 136 6.478433944192542E-3
100 137 6.220953870141162E-3
100 138 5.967073365401693E-3
100 139 5.717197889348822E-3
100 140 5.471703079103E-3
100 141 5.230934364960887E-3
100 142 4.995206766193312E-3
100 143 4.76480486080035E-3
100 144 4.53998292177005E-3
100 145 4.32096521145483E-3
100 146 4.107946424861764E-3
100 147 3.901092271952699E-3
100 148 3.7005401884686075E-3
100 149 3.5064001643299895E-3
100 150 3.3187556783199905E-3
100 151 3.1376647275268414E-3
100 152 2.9631609399036283E-3
100 153 2.795254758291549E-3
100 154 2.633934684342309E-3
100 155 2.4791685709596527E-3
100 156 2.330904952152349E-3
100 157 2.1890743995435897E-3
100 158 2.0535908952067335E-3
100 159 1.9243532109863046E-3
100 160 1.8012462850076334E-3
100 161 1.6841425866698377E-3
100 162 1.5729034620464647E-3
100 163 1.4673804522774983E-3
100 164 1.367416578217387E-3
100 165 1.2728475852982531E-3
100 166 1.183503143267951E-3
100 167 1.0992079961619481E-3
100 168 1.0197830585595082E-3
100 169 9.450464548521614E-4
100 170 8.748144989104668E-4
100 171 8.089026121686099E-4
100 172 7.471261787510978E-4
100 173 6.893013368380249E-4
100 174 6.352457060019391E-4
100 175 5.847790507477894E-4
100 176 5.377238809458774E-4
100 177 4.939059902648149E-4
100 178 4.531549340864822E-4
100 179 4.153044487175457E-4
100 180 3.801928140025063E-4
100 181 3.4766316169206583E-4
100 182 3.175637321289198E-4
100 183 2.8974808198221224E-4
100 184 2.64075245893548E-4
100 185 2.404098549935424E-4
100 186 2.186222153105597E-4
100 187 1.9858834912484408E-4
100 188 1.801900023241393E-4
100 189 1.6331462079362345E-4
100 190 1.478552988261544E-4
100 191 1.3371070247100844E-4
100 192 1.2078497065307907E-4
100 193 1.0898759679241744E-4
100 194 9.8233293538506E-5
100 195 8.844184310713185E-5
100 196 7.953793557242816E-5
100 197 7.145099732471724E-5
100 198 6.41150117582164E-5
100 199 5.746833410330014E-5
100 200 5.1453502167554E-5
101 2 5.746833410330014E-5
101 3 6.41150117582164E-5
101 4 7.145099732471724E-5
101 5 7.953793557242816E-5
101 6 8.844184310713185E-5
101 7 9.8233293538506E-5
101 8 1.0898759679241744E-4
101 9 1.2078497065307907E-4
101 10 1.3371070247100844E-4
101 11 1.478552988261544E-4
101 12 1.6331462079362345E-4
101 13 1.801900023241393E-4
101 14 1.9858834912484408E-4
101 15 2.186222153105597E-4
101 16 2.404098549935424E-4
101 17 2.64075245893548E-4
101 18 2.8974808198221224E-4
101 19 3.175637321289198E-4
101 20 3.4766316169206583E-4
101 21 3.801928140025063E-4
101 22 4.153044487175457E-4
101 23 4.531549340864822E-4
101 24 4.939059902648149E-4
101 25 5.377238809458774E-4
101 26 5.847790507477894E-4
101 27 6.352457060019391E-4
101 28 6.893013368380249E-4
101 29 7.471261787510978E-4
101 30 8.089026121686099E-4
101 31 8.748144989104668E-4
101 32 9.450464548521614E-4
101 33 1.0197830585595082E-3
101 34 1.0992079961619481E-3
101 35 1.183503143267951E-3
101 36 1.2728475852982531E-3
101 37 1.367416578217387E-3
101 38 1.4673804522774983E-3
101 39 1.5729034620464647E-3
101 40 1.6841425866698377E-3
101 41 1.8012462850076334E-3
101 42 1.9243532109863046E-3
101 43 2.0535908952067335E-3
101 44 2.1890743995435897E-3
101 45 2.330904952152349E-3
101 46 2.4791685709596527E-3
101 47 2.633934684342309E-3
101 48 2.795254758291549E-3
101 49 2.9631609399036283E-3
101 50 3.1376647275268414E-3
101 51 3.3187556783199905E-3
101 52 3.5064001643299895E-3
101 53 3.7005401884686075E-3
101 54 3.901092271952699E-3
101 55 4.107946424861764E-3
101 56 4.32096521145483E-3
101 57 4.53998292177005E-3
101 58 4.76480486080035E-3
101 59 4.995206766193312E-3
101 60 5.230934364960887E-3
101 61 5.471703079103E-3
101 62 5.717197889348822E-3
101 63 5.967073365401693E-3
101 64 6.220953870141162E-3
101 65 6.478433944192542E-3
101 66 6.739078876126403E-3
101 67 7.002425462304573E-3
101 68 7.267982959054018E-3
101 69 7.535234228435287E-3
101 70 7.803637077389106E-3
101 71 8.072625788505754E-3
101 72 8.341612839080366E-3
101 73 8.609990803507927E-3
101 74 8.87713443244969E-3
101 75 9.142402900584164E-3
101 76 9.405142213157209E-3
101 77 9.664687759983982E-3
101 78 9.920367004047512E-3
101 79 1.0171502290401539E-2
101 80 1.0417413759735424E-2
101 81 1.0657422349712599E-2
101 82 1.0890852866066733E-2
101 83 1.1117037104445721E-2
101 84 1.1335317003146307E-2
101 85 1.1545047806193727E-2
101 86 1.174560121570136E-2
101 87 1.1936368512104304E-2
101 88 1.211676362070477E-2
101 89 1.2286226103001317E-2
101 90 1.2444224051501605E-2
101 91 1.2590256867140038E-2
101 92 1.2723857899036553E-2
101 93 1.2844596927137332E-2
101 94 1.2952082469266922E-2
101 95 1.3045963895286368E-2
101 96 1.3125933332383884E-2
101 97 1.3191727347011566E-2
101 98 1.3243128390610169E-2
101 99 1.3279965998018756E-2
101 100 1.33021177293305E-2
101 101 1.330950984791183E-2
101 102 1.33021177293305E-2
101 103 1.3279965998018756E-2
101 104 1.3243128390610169E-2
101 105 1.3191727347011566E-2
101 106 1.3125933332383884E-2
101 107 1.3045963895286368E-2
101 108 1.2952082469266922E-2
101 109 1.2844596927137332E-2
101 110 1.2723857899036553E-2
101 111 1.2590256867140038E-2
101 112 1.2444224051501605E-2
101 113 1.2286226103001317E-2
101 114 1.211676362070477E-2
101 115 1.1936368512104304E-2
101 116 1.174560121570136E-2
101 117 1.1545047806193727E-2
101 118 1.1335317003146307E-2
101 119 1.1117037104445721E-2
101 120 1.0890852866066733E-2
101 121 1.0657422349712599E-2
101 122 1.0417413759735424E-2
101 123 1.0171502290401539E-2
101 124 9.920367004047512E-3
101 125 9.664687759983982E-3
101 126 9.405142213157209E-3
101 127 9.142402900584164E-3
101 128 8.87713443244969E-3
101 129 8.609990803507927E-3
101 130 8.341612839080366E-3
101 131 8.072625788505754E-3
101 132 7.803637077389106E-3
101 133 7.535234228435287E-3
101 134 7.267982959054018E-3
101 135 7.002425462304573E-3
101 136 6.739078876126403E-3
101 137 6.478433944192542E-3
101 138 6.220953870141162E-3
101 139 5.967073365401693E-3
101 140 5.717197889348822E-3
101 141 5.471703079103E-3
101 142 5.230934364960887E-3
101 143 4.995206766193312E-3
101 144 4.76480486080035E-3
101 145 4.53998292177005E-3
101 146 4.32096521145483E-3
101 147 4.107946424861764E-3
101 148 3.901092271952699E-3
101 149 3.7005401884686075E-3
101 150 3.5064001643299895E-3
101 151 3.3187556783199905E-3
101 152 3.1376647275268414E-3
101 153 2.9631609399036283E-3
101 154 2.795254758291549E-3
101 155 2.633934684342309E-3
101 156 2.4791685709596527E-3
101 157 2.330904952152349E-3
101 158 2.1890743995435897E-3
101 159 2.0535908952067335E-3
101 160 1.9243532109863046E-3
101 161 1.8012462850076334E-3
101 162 1.6841425866698377E-3
101 163 1.5729034620464647E-3
101 164 1.4673804522774983E-3
101 165 1.367416578217387E-3
101 166 1.2728475852982531E-3
101 167 1.183503143267951E-3
101 168 1.0992079961619481E-3
101 169 1.0197830585595082E-3
101 170 9.450464548521614E-4
101 171 8.748144989104668E-4
101 172 8.089026121686099E-4
101 173 7.471261787510978E-4
101 174 6.893013368380249E-4
101 175 6.352457060019391E-4
101 176 5.847790507477894E-4
101 177 5.377238809458774E-4
101 178 4.939059902648149E-4
101 179 4.531549340864822E-4
101 180 4.153044487175457E-4
101 181 3.801928140025063E-4
101 182 3.4766316169206583E-4
101 183 3.175637321289198E-4
101 184 2.8974808198221224E-4
101 185 2.64075245893548E-4
101 186 2.404098549935424E-4
101 187 2.186222153105597E-4
101 188 1.9858834912484408E-4
101 189 1.801900023241393E-4
101 190 1.6331462079362345E-4
101 191 1.478552988261544E-4
101 192 1.3371070247100844E-4
101 193 1.2078497065307907E-4
101 194 1.0898759679241744E-4
101 195 9.8233293538506E-5
101 196 8.844184310713185E-5
101 197 7.953793557242816E-5
101 198 7.145099732471724E-5
101 199 6.41150117582164E-5
101 200 1.0892183627085414E-4
102 3 5.746833410330014E-5
102 4 6.41150117582164E-5
102 5 7.145099732471724E-5
102 6 7.953793557242816E-5
102 7 8.844184310713185E-5
102 8 9.8233293538506E-5
102 9 1.0898759679241744E-4
102 10 1.2078497065307907E-4
102 11 1.3371070247100844E-4
102 12 1.478552988261544E-4
102 13 1.6331462079362345E-4
102 14 1.801900023241393E-4
102 15 1.9858834912484408E-4
102 16 2.186222153105597E-4
102 17 2.404098549935424E-4
102 18 2.64075245893548E-4
102 19 2.8974808198221224E-4
102 20 3.175637321289198E-4
102 21 3.4766316169206583E-4
102 22 3.801928140025063E-4
102 23 4.153044487175457E-4
102 24 4.531549340864822E-4
102 25 4.939059902648149E-4
102 26 5.377238809458774E-4
102 27 5.847790507477894E-4
102 28 6.352457060019391E-4
102 29 6.893013368380249E-4
102 30 7.471261787510978E-4
102 31 8.089026121686099E-4
102 32 8.748144989104668E-4
102 33 9.450464548521614E-4
102 34 1.0197830585595082E-3
102 35 1.0992079961619481E-3
102 36 1.183503143267951E-3
102 37 1.2728475852982531E-3
102 38 1.367416578217387E-3
102 39 1.4673804522774983E-3
102 40 1.5729034620464647E-3
102 41 1.6841425866698377E-3
102 42 1.8012462850076334E-3
102 43 1.9243532109863046E-3
102 44 2.0535908952067335E-3
102 45 2.1890743995435897E-3
102 46 2.330904952152349E-3
102 47 2.4791685709596527E-3
102 48 2.633934684342309E-3
102 49 2.795254758291549E-3
102 50 2.9631609399036283E-3
102 51 3.1376647275268414E-3
102 52 3.3187556783199905E-3
102 53 3.5064001643299895E-3
102 54 3.7005401884686075E-3
102 55 3.901092271952699E-3
102 56 4.107946424861764E-3
102 57 4.32096521145483E-3
102 58 4.53998292177005E-3
102 59 4.76480486080035E-3
102 60 4.995206766193312E-3
102 61 5.230934364960887E-3
102 62 5.471703079103E-3
102 63 5.717197889348822E-3
102 64 5.967073365401693E-3
102 65 6.220953870141162E-3
102 66 6.478433944192542E-3
102 67 6.739078876126403E-3
102 68 7.002425462304573E-3
102 69 7.267982959054018E-3
102 70 7.535234228435287E-3
102 71 7.803637077389106E-3
102 72 8.072625788505754E-3
102 73 8.341612839080366E-3
102 74 8.609990803507927E-3
102 75 8.87713443244969E-3
102 76 9.142402900584164E-3
102 77 9.405142213157209E-3
102 78 9.664687759983982E-3
102 79 9.920367004047512E-3
102 80 1.0171502290401539E-2
102 81 1.0417413759735424E-2
102 82 1.0657422349712599E-2
102 83 1.0890852866066733E-2
102 84 1.1117037104445721E-2
102 85 1.1335317003146307E-2
102 86 1.1545047806193727E-2
102 87 1.174560121570136E-2
102 88 1.1936368512104304E-2
102 89 1.211676362070477E-2
102 90 1.2286226103001317E-2
102 91 1.2444224051501605E-2
102 92 1.2590256867140038E-2
102 93 1.2723857899036553E-2
102 94 1.2844596927137332E-2
102 95 1.2952082469266922E-2
102 96 1.3045963895286368E-2
102 97 1.3125933332383884E-2
102 98 1.3191727347011566E-2
102 99 1.3243128390610169E-2
102 100 1.3279965998018756E-2
102 101 1.33021177293305E-2
102 102 1.330950984791183E-2
102 103 1.33021177293305E-2
102 104 1.3279965998018756E-2
102 105 1.3243128390610169E-2
102 106 1.3191727347011566E-2
102 107 1.3125933332383884E-2
102 108 1.3045963895286368E-2
102 109 1.2952082469266922E-2
102 110 1.2844596927137332E-2
102 111 1.2723857899036553E-2
102 112 1.2590256867140038E-2
102 113 1.2444224051501605E-2
102 114 1.2286226103001317E-2
102 115 1.211676362070477E-2
102 116 1.1936368512104304E-2
102 117 1.174560121570136E-2
102 118 1.1545047806193727E-2
102 119 1.1335317003146307E-2
102 120 1.1117037104445721E-2
102 121 1.0890852866066733E-2
102 122 1.0657422349712599E-2
102 123 1.0417413759735424E-2
102 124 1.0171502290401539E-2
102 125 9.920367004047512E-3
102 126 9.664687759983982E-3
102 127 9.405142213157209E-3
102 128 9.142402900584164E-3
102 129 8.87713443244969E-3
102 130 8.609990803507927E-3
102 131 8.341612839080366E-3
102 132 8.072625788505754E-3
102 133 7.803637077389106E-3
102 134 7.535234228435287E-3
102 135 7.267982959054018E-3
102 136 7.002425462304573E-3
102 137 6.739078876126403E-3
102 138 6.478433944192542E-3
102 139 6.220953870141162E-3
102 140 5.967073365401693E-3
102 141 5.717197889348822E-3
102 142 5.471703079103E-3
102 143 5.230934364960887E-3
102 144 4.995206766193312E-3
102 145 4.76480486080035E-3
102 146 4.53998292177005E-3
102 147 4.32096521145483E-3
102 148 4.107946424861764E-3
102 149 3.901092271952699E-3
102 150 3.7005401884686075E-3
102 151 3.5064001643299895E-3
102 152 3.3187556783199905E-3
102 153 3.1376647275268414E-3
102 154 2.9631609399036283E-3
102 155 2.795254758291549E-3
102 156 2.633934684342309E-3
102 157 2.4791685709596527E-3
102 158 2.330904952152349E-3
102 159 2.1890743995435897E-3
102 160 2.0535908952067335E-3
102 161 1.9243532109863046E-3
102 162 1.8012462850076334E-3
102 163 1.6841425866698377E-3
102 164 1.5729034620464647E-3
102 165 1.4673804522774983E-3
102 166 1.367416578217387E-3
102 167 1.2728475852982531E-3
102 168 1.183503143267951E-3
102 169 1.0992079961619481E-3
102 170 1.0197830585595082E-3
102 171 9.450464548521614E-4
102 172 8.748144989104668E-4
102 173 8.089026121686099E-4
102 174 7.471261787510978E-4
102 175 6.893013368380249E-4
102 176 6.352457060019391E-4
102 177 5.847790507477894E-4
102 178 5.377238809458774E-4
102 179 4.939059902648149E-4
102 180 4.531549340864822E-4
102 181 4.153044487175457E-4
102 182 3.801928140025063E-4
102 183 3.4766316169206583E-4
102 184 3.175637321289198E-4
102 185 2.8974808198221224E-4
102 186 2.64075245893548E-4
102 187 2.404098549935424E-4
102 188 2.186222153105597E-4
102 189 1.9858834912484408E-4
102 190 1.801900023241393E-4
102 191 1.6331462079362345E-4
102 192 1.478552988261544E-4
102 193 1.3371070247100844E-4
102 194 1.2078497065307907E-4
102 195 1.0898759679241744E-4
102 196 9.8233293538506E-5
102 197 8.844184310713185E-5
102 198 7.953793557242816E-5
102 199 1.2290449949227124E-4
102 200 1.2158334586151654E-4
103 4 5.746833410330014E-5
103 5 6.41150117582164E-5
103 6 7.145099732471724E-5
103 7 7.953793557242816E-5
103 8 8.844184310713185E-5
103 9 9.8233293538506E-5
103 10 1.0898759679241744E-4
103 11 1.2078497065307907E-4
103 12 1.3371070247100844E-4
103 13 1.478552988261544E-4
103 14 1.6331462079362345E-4
103 15 1.801900023241393E-4
103 16 1.9858834912484408E-4
103 17 2.186222153105597E-4
103 18 2.404098549935424E-4
103 19 2.64075245893548E-4
103 20 2.8974808198221224E-4
103 21 3.175637321289198E-4
103 22 3.4766316169206583E-4
103 23 3.801928140025063E-4
103 24 4.153044487175457E-4
103 25 4.531549340864822E-4
103 26 4.939059902648149E-4
103 27 5.377238809458774E-4
103 28 5.847790507477894E-4
103 29 6.352457060019391E-4
103 30 6.893013368380249E-4
103 31 7.471261787510978E-4
103 32 8.089026121686099E-4
103 33 8.748144989104668E-4
103 34 9.450464548521614E-4
103 35 1.0197830585595082E-3
103 36 1.0992079961619481E-3
103 37 1.183503143267951E-3
103 38 1.2728475852982531E-3
103 39 1.367416578217387E-3
103 40 1.4673804522774983E-3
103 41 1.5729034620464647E-3
103 42 1.6841425866698377E-3
103 43 1.8012462850076334E-3
103 44 1.9243532109863046E-3
103 45 2.0535908952067335E-3
103 46 2.1890743995435897E-3
103 47 2.330904952152349E-3
103 48 2.4791685709596527E-3
103 49 2.633934684342309E-3
103 50 2.795254758291549E-3
103 51 2.9631609399036283E-3
103 52 3.1376647275268414E-3
103 53 3.3187556783199905E-3
103 54 3.5064001643299895E-3
103 55 3.7005401884686075E-3
103 56 3.901092271952699E-3
103 57 4.107946424861764E-3
103 58 4.32096521145483E-3
103 59 4.53998292177005E-3
103 60 4.76480486080035E-3
103 61 4.995206766193312E-3
103 62 5.230934364960887E-3
103 63 5.471703079103E-3
103 64 5.717197889348822E-3
103 65 5.967073365401693E-3
103 66 6.220953870141162E-3
103 67 6.478433944192542E-3
103 68 6.739078876126403E-3
103 69 7.002425462304573E-3
103 70 7.267982959054018E-3
103 71 7.535234228435287E-3
103 72 7.803637077389106E-3
103 73 8.072625788505754E-3
103 74 8.341612839080366E-3
103 75 8.609990803507927E-3
103 76 8.87713443244969E-3
103 77 9.142402900584164E-3
103 78 9.405142213157209E-3
103 79 9.664687759983982E-3
103 80 9.920367004047512E-3
103 81 1.0171502290401539E-2
103 82 1.0417413759735424E-2
103 83 1.0657422349712599E-2
103 84 1.0890852866066733E-2
103 85 1.1117037104445721E-2
103 86 1.1335317003146307E-2
103 87 1.1545047806193727E-2
103 88 1.174560121570136E-2
103 89 1.1936368512104304E-2
103 90 1.211676362070477E-2
103 91 1.2286226103001317E-2
103 92 1.2444224051501605E-2
103 93 1.2590256867140038E-2
103 94 1.2723857899036553E-2
103 95 1.2844596927137332E-2
103 96 1.2952082469266922E-2
103 97 1.3045963895286368E-2
103 98 1.3125933332383884E-2
103 99 1.3191727347011566E-2
103 100 1.3243128390610169E-2
103 101 1.3279965998018756E-2
103 102 1.33021177293305E-2
103 103 1.330950984791183E-2
103 104 1.33021177293305E-2
103 105 1.3279965998018756E-2
103 106 1.3243128390610169E-2
103 107 1.3191727347011566E-2
103 108 1.3125933332383884E-2
103 109 1.3045963895286368E-2
103 110 1.2952082469266922E-2
103 111 1.2844596927137332E-2
103 112 1.2723857899036553E-2
103 113 1.2590256867140038E-2
103 114 1.2444224051501605E-2
103 115 1.2286226103001317E-2
103 116 1.211676362070477E-2
103 117 1.1936368512104304E-2
103 118 1.174560121570136E-2
103 119 1.1545047806193727E-2
103 120 1.1335317003146307E-2
103 121 1.1117037104445721E-2
103 122 1.0890852866066733E-2
103 123 1.0657422349712599E-2
103 124 1.0417413759735424E-2
103 125 1.0171502290401539E-2
103 126 9.920367004047512E-3
103 127 9.664687759983982E-3
103 128 9.405142213157209E-3
103 129 9.142402900584164E-3
103 130 8.87713443244969E-3
103 131 8.609990803507927E-3
103 132 8.341612839080366E-3
103 133 8.072625788505754E-3
103 134 7.803637077389106E-3
103 135 7.535234228435287E-3
103 136 7.267982959054018E-3
103 137 7.002425462304573E-3
103 138 6.739078876126403E-3
103 139 6.478433944192542E-3
103 140 6.220953870141162E-3
103 141 5.967073365401693E-3
103 142 5.717197889348822E-3
103 143 5.471703079103E-3
103 144 5.230934364960887E-3
103 145 4.995206766193312E-3
103 146 4.76480486080035E-3
103 147 4.53998292177005E-3
103 148 4.32096521145483E-3
103 149 4.107946424861764E-3
103 150 3.901092271952699E-3
103 151 3.7005401884686075E-3
103 152 3.5064001643299895E-3
103 153 3.3187556783199905E-3
103 154 3.1376647275268414E-3
103 155 2.9631609399036283E-3
103 156 2.795254758291549E-3
103 157 2.633934684342309E-3
103 158 2.4791685709596527E-3
103 159 2.330904952152349E-3
103 160 2.1890743995435897E-3
103 161 2.0535908952067335E-3
103 162 1.9243532109863046E-3
103 163 1.8012462850076334E-3
103 164 1.6841425866698377E-3
103 165 1.5729034620464647E-3
103 166 1.4673804522774983E-3
103 167 1.367416578217387E-3
103 168 1.2728475852982531E-3
103 169 1.183503143267951E-3
103 170 1.0992079961619481E-3
103 171 1.0197830585595082E-3
103 172 9.450464548521614E-4
103 173 8.748144989104668E-4
103 174 8.089026121686099E-4
103 175 7.471261787510978E-4
103 176 6.893013368380249E-4
103 177 6.352457060019391E-4
103 178 5.847790507477894E-4
103 179 5.377238809458774E-4
103 180 4.939059902648149E-4
103 181 4.531549340864822E-4
103 182 4.153044487175457E-4
103 183 3.801928140025063E-4
103 184 3.4766316169206583E-4
103 185 3.175637321289198E-4
103 186 2.8974808198221224E-4
103 187 2.64075245893548E-4
103 188 2.404098549935424E-4
103 189 2.186222153105597E-4
103 190 1.9858834912484408E-4
103 191 1.801900023241393E-4
103 192 1.6331462079362345E-4
103 193 1.478552988261544E-4
103 194 1.3371070247100844E-4
103 195 1.2078497065307907E-4
103 196 1.0898759679241744E-4
103 197 9.8233293538506E-5
103 198 1.3989534527468586E-4
103 199 1.370062696757283E-4
103 200 1.3556600908293362E-4
104 5 5.746833410330014E-5
104 6 6.41150117582164E-5
104 7 7.145099732471724E-5
104 8 7.953793557242816E-5
104 9 8.844184310713185E-5
104 10 9.8233293538506E-5
104 11 1.0898759679241744E-4
104 12 1.2078497065307907E-4
104 13 1.3371070247100844E-4
104 14 1.478552988261544E-4
104 15 1.6331462079362345E-4
104 16 1.801900023241393E-4
104 17 1.9858834912484408E-4
104 18 2.186222153105597E-4
104 19 2.404098549935424E-4
104 20 2.64075245893548E-4
104 21 2.8974808198221224E-4
104 22 3.175637321289198E-4
104 23 3.4766316169206583E-4
104 24 3.801928140025063E-4
104 25 4.153044487175457E-4
104 26 4.531549340864822E-4
104 27 4.939059902648149E-4
104 28 5.377238809458774E-4
104 29 5.847790507477894E-4
104 30 6.352457060019391E-4
104 31 6.893013368380249E-4
104 32 7.471261787510978E-4
104 33 8.089026121686099E-4
104 34 8.748144989104668E-4
104 35 9.450464548521614E-4
104 36 1.0197830585595082E-3
104 37 1.0992079961619481E-3
104 38 1.183503143267951E-3
104 39 1.2728475852982531E-3
104 40 1.367416578217387E-3
104 41 1.4673804522774983E-3
104 42 1.5729034620464647E-3
104 43 1.6841425866698377E-3
104 44 1.8012462850076334E-3
104 45 1.9243532109863046E-3
104 46 2.0535908952067335E-3
104 47 2.1890743995435897E-3
104 48 2.330904952152349E-3
104 49 2.4791685709596527E-3
104 50 2.633934684342309E-3
104 51 2.795254758291549E-3
104 52 2.9631609399036283E-3
104 53 3.1376647275268414E-3
104 54 3.3187556783199905E-3
104 55 3.5064001643299895E-3
104 56 3.7005401884686075E-3
104 57 3.901092271952699E-3
104 58 4.107946424861764E-3
104 59 4.32096521145483E-3
104 60 4.53998292177005E-3
104 61 4.76480486080035E-3
104 62 4.995206766193312E-3
104 63 5.230934364960887E-3
104 64 5.471703079103E-3
104 65 5.717197889348822E-3
104 66 5.967073365401693E-3
104 67 6.220953870141162E-3
104 68 6.478433944192542E-3
104 69 6.739078876126403E-3
104 70 7.002425462304573E-3
104 71 7.267982959054018E-3
104 72 7.535234228435287E-3
104 73 7.803637077389106E-3
104 74 8.072625788505754E-3
104 75 8.341612839080366E-3
104 76 8.609990803507927E-3
104 77 8.87713443244969E-3
104 78 9.142402900584164E-3
104 79 9.405142213157209E-3
104 80 9.664687759983982E-3
104 81 9.920367004047512E-3
104 82 1.0171502290401539E-2
104 83 1.0417413759735424E-2
104 84 1.0657422349712599E-2
104 85 1.0890852866066733E-2
104 86 1.1117037104445721E-2
104 87 1.1335317003146307E-2
104 88 1.1545047806193727E-2
104 89 1.174560121570136E-2
104 90 1.1936368512104304E-2
104 91 1.211676362070477E-2
104 92 1.2286226103001317E-2
104 93 1.2444224051501605E-2
104 94 1.2590256867140038E-2
104 95 1.2723857899036553E-2
104 96 1.2844596927137332E-2
104 97 1.2952082469266922E-2
104 98 1.3045963895286368E-2
104 99 1.3125933332383884E-2
104 100 1.3191727347011566E-2
104 101 1.3243128390610169E-2
104 102 1.3279965998018756E-2
104 103 1.33021177293305E-2
104 104 1.330950984791183E-2
104 105 1.33021177293305E-2
104 106 1.3279965998018756E-2
104 107 1.3243128390610169E-2
104 108 1.3191727347011566E-2
104 109 1.3125933332383884E-2
104 110 1.3045963895286368E-2
104 111 1.2952082469266922E-2
104 112 1.2844596927137332E-2
104 113 1.2723857899036553E-2
104 114 1.2590256867140038E-2
104 115 1.2444224051501605E-2
104 116 1.2286226103001317E-2
104 117 1.211676362070477E-2
104 118 1.1936368512104304E-2
104 119 1.174560121570136E-2
104 120 1.1545047806193727E-2
104 121 1.1335317003146307E-2
104 122 1.1117037104445721E-2
104 123 1.0890852866066733E-2
104 124 1.0657422349712599E-2
104 125 1.0417413759735424E-2
104 126 1.0171502290401539E-2
104 127 9.920367004047512E-3
104 128 9.664687759983982E-3
104 129 9.405142213157209E-3
104 130 9.142402900584164E-3
104 131 8.87713443244969E-3
104 132 8.609990803507927E-3
104 133 8.341612839080366E-3
104 134 8.072625788505754E-3
104 135 7.803637077389106E-3
104 136 7.535234228435287E-3
104 137 7.267982959054018E-3
104 138 7.002425462304573E-3
104 139 6.739078876126403E-3
104 140 6.478433944192542E-3
104 141 6.220953870141162E-3
104 142 5.967073365401693E-3
104 143 5.717197889348822E-3
104 144 5.471703079103E-3
104 145 5.230934364960887E-3
104 146 4.995206766193312E-3
104 147 4.76480486080035E-3
104 148 4.53998292177005E-3
104 149 4.32096521145483E-3
104 150 4.107946424861764E-3
104 151 3.901092271952699E-3
104 152 3.7005401884686075E-3
104 153 3.5064001643299895E-3
104 154 3.3187556783199905E-3
104 155 3.1376647275268414E-3
104 156 2.9631609399036283E-3
104 157 2.795254758291549E-3
104 158 2.633934684342309E-3
104 159 2.4791685709596527E-3
104 160 2.330904952152349E-3
104 161 2.1890743995435897E-3
104 162 2.0535908952067335E-3
104 163 1.9243532109863046E-3
104 164 1.8012462850076334E-3
104 165 1.6841425866698377E-3
104 166 1.5729034620464647E-3
104 167 1.4673804522774983E-3
104 168 1.367416578217387E-3
104 169 1.2728475852982531E-3
104 170 1.183503143267951E-3
104 171 1.0992079961619481E-3
104 172 1.0197830585595082E-3
104 173 9.450464548521614E-4
104 174 8.748144989104668E-4
104 175 8.089026121686099E-4
104 176 7.471261787510978E-4
104 177 6.893013368380249E-4
104 178 6.352457060019391E-4
104 179 5.847790507477894E-4
104 180 5.377238809458774E-4
104 181 4.939059902648149E-4
104 182 4.531549340864822E-4
104 183 4.153044487175457E-4
104 184 3.801928140025063E-4
104 185 3.4766316169206583E-4
104 186 3.175637321289198E-4
104 187 2.8974808198221224E-4
104 188 2.64075245893548E-4
104 189 2.404098549935424E-4
104 190 2.186222153105597E-4
104 191 1.9858834912484408E-4
104 192 1.801900023241393E-4
104 193 1.6331462079362345E-4
104 194 1.478552988261544E-4
104 195 1.3371070247100844E-4
104 196 1.2078497065307907E-4
104 197 1.6044109895997145E-4
104 198 1.5570162764180613E-4
104 199 1.5255685486534825E-4
104 200 1.509889328971454E-4
105 6 5.746833410330014E-5
105 7 6.41150117582164E-5
105 8 7.145099732471724E-5
105 9 7.953793557242816E-5
105 10 8.844184310713185E-5
105 11 9.8233293538506E-5
105 12 1.0898759679241744E-4
105 13 1.2078497065307907E-4
105 14 1.3371070247100844E-4
105 15 1.478552988261544E-4
105 16 1.6331462079362345E-4
105 17 1.801900023241393E-4
105 18 1.9858834912484408E-4
105 19 2.186222153105597E-4
105 20 2.404098549935424E-4
105 21 2.64075245893548E-4
105 22 2.8974808198221224E-4
105 23 3.175637321289198E-4
105 24 3.4766316169206583E-4
105 25 3.801928140025063E-4
105 26 4.153044487175457E-4
105 27 4.531549340864822E-4
105 28 4.939059902648149E-4
105 29 5.377238809458774E-4
105 30 5.847790507477894E-4
105 31 6.352457060019391E-4
105 32 6.893013368380249E-4
105 33 7.471261787510978E-4
105 34 8.089026121686099E-4
105 35 8.748144989104668E-4
105 36 9.450464548521614E-4
105 37 1.0197830585595082E-3
105 38 1.0992079961619481E-3
105 39 1.183503143267951E-3
105 40 1.2728475852982531E-3
105 41 1.367416578217387E-3
105 42 1.4673804522774983E-3
105 43 1.5729034620464647E-3
105 44 1.6841425866698377E-3
105 45 1.8012462850076334E-3
105 46 1.9243532109863046E-3
105 47 2.0535908952067335E-3
105 48 2.1890743995435897E-3
105 49 2.330904952152349E-3
105 50 2.4791685709596527E-3
105 51 2.633934684342309E-3
105 52 2.795254758291549E-3
105 53 2.9631609399036283E-3
105 54 3.1376647275268414E-3
105 55 3.3187556783199905E-3
105 56 3.5064001643299895E-3
105 57 3.7005401884686075E-3
105 58 3.901092271952699E-3
105 59 4.107946424861764E-3
105 60 4.32096521145483E-3
105 61 4.53998292177005E-3
105 62 4.76480486080035E-3
105 63 4.995206766193312E-3
105 64 5.230934364960887E-3
105 65 5.471703079103E-3
105 66 5.717197889348822E-3
105 67 5.967073365401693E-3
105 68 6.220953870141162E-3
105 69 6.478433944192542E-3
105 70 6.739078876126403E-3
105 71 7.002425462304573E-3
105 72 7.267982959054018E-3
105 73 7.535234228435287E-3
105 74 7.803637077389106E-3
105 75 8.072625788505754E-3
105 76 8.341612839080366E-3
105 77 8.609990803507927E-3
105 78 8.87713443244969E-3
105 79 9.142402900584164E-3
105 80 9.405142213157209E-3
105 81 9.664687759983982E-3
105 82 9.920367004047512E-3
105 83 1.0171502290401539E-2
105 84 1.0417413759735424E-2
105 85 1.0657422349712599E-2
105 86 1.0890852866066733E-2
105 87 1.1117037104445721E-2
105 88 1.1335317003146307E-2
105 89 1.1545047806193727E-2
105 90 1.174560121570136E-2
105 91 1.1936368512104304E-2
105 92 1.211676362070477E-2
105 93 1.2286226103001317E-2
105 94 1.2444224051501605E-2
105 95 1.2590256867140038E-2
105 96 1.2723857899036553E-2
105 97 1.2844596927137332E-2
105 98 1.2952082469266922E-2
105 99 1.3045963895286368E-2
105 100 1.3125933332383884E-2
105 101 1.3191727347011566E-2
105 102 1.3243128390610169E-2
105 103 1.3279965998018756E-2
105 104 1.33021177293305E-2
105 105 1.330950984791183E-2
105 106 1.33021177293305E-2
105 107 1.3279965998018756E-2
105 108 1.3243128390610169E-2
105 109 1.3191727347011566E-2
105 110 1.3125933332383884E-2
105 111 1.3045963895286368E-2
105 112 1.2952082469266922E-2
105 113 1.2844596927137332E-2
105 114 1.2723857899036553E-2
105 115 1.2590256867140038E-2
105 116 1.2444224051501605E-2
105 117 1.2286226103001317E-2
105 118 1.211676362070477E-2
105 119 1.1936368512104304E-2
105 120 1.174560121570136E-2
105 121 1.1545047806193727E-2
105 122 1.1335317003146307E-2
105 123 1.1117037104445721E-2
105 124 1.0890852866066733E-2
105 125 1.0657422349712599E-2
105 126 1.0417413759735424E-2
105 127 1.0171502290401539E-2
105 128 9.920367004047512E-3
105 129 9.664687759983982E-3
105 130 9.405142213157209E-3
105 131 9.142402900584164E-3
105 132 8.87713443244969E-3
105 133 8.609990803507927E-3
105 134 8.341612839080366E-3
105 135 8.072625788505754E-3
105 136 7.803637077389106E-3
105 137 7.535234228435287E-3
105 138 7.267982959054018E-3
105 139 7.002425462304573E-3
105 140 6.739078876126403E-3
105 141 6.478433944192542E-3
105 142 6.220953870141162E-3
105 143 5.967073365401693E-3
105 144 5.717197889348822E-3
105 145 5.471703079103E-3
105 146 5.230934364960887E-3
105 147 4.995206766193312E-3
105 148 4.76480486080035E-3
105 149 4.53998292177005E-3
105 150 4.32096521145483E-3
105 151 4.107946424861764E-3
105 152 3.901092271952699E-3
105 153 3.7005401884686075E-3
105 154 3.5064001643299895E-3
105 155 3.3187556783199905E-3
105 156 3.1376647275268414E-3
105 157 2.9631609399036283E-3
105 158 2.795254758291549E-3
105 159 2.633934684342309E-3
105 160 2.4791685709596527E-3
105 161 2.330904952152349E-3
105 162 2.1890743995435897E-3
105 163 2.0535908952067335E-3
105 164 1.9243532109863046E-3
105 165 1.8012462850076334E-3
105 166 1.6841425866698377E-3
105 167 1.5729034620464647E-3
105 168 1.4673804522774983E-3
105 169 1.367416578217387E-3
105 170 1.2728475852982531E-3
105 171 1.183503143267951E-3
105 172 1.0992079961619481E-3
105 173 1.0197830585595082E-3
105 174 9.450464548521614E-4
105 175 8.748144989104668E-4
105 176 8.089026121686099E-4
105 177 7.471261787510978E-4
105 178 6.893013368380249E-4
105 179 6.352457060019391E-4
105 180 5.847790507477894E-4
105 181 5.377238809458774E-4
105 182 4.939059902648149E-4
105 183 4.531549340864822E-4
105 184 4.153044487175457E-4
105 185 3.801928140025063E-4
105 186 3.4766316169206583E-4
105 187 3.175637321289198E-4
105 188 2.8974808198221224E-4
105 189 2.64075245893548E-4
105 190 2.404098549935424E-4
105 191 2.186222153105597E-4
105 192 1.9858834912484408E-4
105 193 1.801900023241393E-4
105 194 1.6331462079362345E-4
105 195 1.478552988261544E-4
105 196 1.8516420463856245E-4
105 197 1.7825330475637922E-4
105 198 1.7310260855063383E-4
105 199 1.6968429086322323E-4
105 200 1.6797977867956003E-4
106 7 5.746833410330014E-5
106 8 6.41150117582164E-5
106 9 7.145099732471724E-5
106 10 7.953793557242816E-5
106 11 8.844184310713185E-5
106 12 9.8233293538506E-5
106 13 1.0898759679241744E-4
106 14 1.2078497065307907E-4
106 15 1.3371070247100844E-4
106 16 1.478552988261544E-4
106 17 1.6331462079362345E-4
106 18 1.801900023241393E-4
106 19 1.9858834912484408E-4
106 20 2.186222153105597E-4
106 21 2.404098549935424E-4
106 22 2.64075245893548E-4
106 23 2.8974808198221224E-4
106 24 3.175637321289198E-4
106 25 3.4766316169206583E-4
106 26 3.801928140025063E-4
106 27 4.153044487175457E-4
106 28 4.531549340864822E-4
106 29 4.939059902648149E-4
106 30 5.377238809458774E-4
106 31 5.847790507477894E-4
106 32 6.352457060019391E-4
106 33 6.893013368380249E-4
106 34 7.471261787510978E-4
106 35 8.089026121686099E-4
106 36 8.748144989104668E-4
106 37 9.450464548521614E-4
106 38 1.0197830585595082E-3
106 39 1.0992079961619481E-3
106 40 1.183503143267951E-3
106 41 1.2728475852982531E-3
106 42 1.367416578217387E-3
106 43 1.4673804522774983E-3
106 44 1.5729034620464647E-3
106 45 1.6841425866698377E-3
106 46 1.8012462850076334E-3
106 47 1.9243532109863046E-3
106 48 2.0535908952067335E-3
106 49 2.1890743995435897E-3
106 50 2.330904952152349E-3
106 51 2.4791685709596527E-3
106 52 2.633934684342309E-3
106 53 2.795254758291549E-3
106 54 2.9631609399036283E-3
106 55 3.1376647275268414E-3
106 56 3.3187556783199905E-3
106 57 3.5064001643299895E-3
106 58 3.7005401884686075E-3
106 59 3.901092271952699E-3
106 60 4.107946424861764E-3
106 61 4.32096521145483E-3
106 62 4.53998292177005E-3
106 63 4.76480486080035E-3
106 64 4.995206766193312E-3
106 65 5.230934364960887E-3
106 66 5.471703079103E-3
106 67 5.717197889348822E-3
106 68 5.967073365401693E-3
106 69 6.220953870141162E-3
106 70 6.478433944192542E-3
106 71 6.739078876126403E-3
106 72 7.002425462304573E-3
106 73 7.267982959054018E-3
106 74 7.535234228435287E-3
106 75 7.803637077389106E-3
106 76 8.072625788505754E-3
106 77 8.341612839080366E-3
106 78 8.609990803507927E-3
106 79 8.87713443244969E-3
106 80 9.142402900584164E-3
106 81 9.405142213157209E-3
106 82 9.664687759983982E-3
106 83 9.920367004047512E-3
106 84 1.0171502290401539E-2
106 85 1.0417413759735424E-2
106 86 1.0657422349712599E-2
106 87 1.0890852866066733E-2
106 88 1.1117037104445721E-2
106 89 1.1335317003146307E-2
106 90 1.1545047806193727E-2
106 91 1.174560121570136E-2
106 92 1.1936368512104304E-2
106 93 1.211676362070477E-2
106 94 1.2286226103001317E-2
106 95 1.2444224051501605E-2
106 96 1.2590256867140038E-2
106 97 1.2723857899036553E-2
106 98 1.2844596927137332E-2
106 99 1.2952082469266922E-2
106 100 1.3045963895286368E-2
106 101 1.3125933332383884E-2
106 102 1.3191727347011566E-2
106 103 1.3243128390610169E-2
106 104 1.3279965998018756E-2
106 105 1.33021177293305E-2
106 106 1.330950984791183E-2
106 107 1.33021177293305E-2
106 108 1.3279965998018756E-2
106 109 1.3243128390610169E-2
106 110 1.3191727347011566E-2
106 111 1.3125933332383884E-2
106 112 1.3045963895286368E-2
106 113 1.2952082469266922E-2
106 114 1.2844596927137332E-2
106 115 1.2723857899036553E-2
106 116 1.2590256867140038E-2
106 117 1.2444224051501605E-2
106 118 1.2286226103001317E-2
106 119 1.211676362070477E-2
106 120 1.1936368512104304E-2
106 121 1.174560121570136E-2
106 122 1.1545047806193727E-2
106 123 1.1335317003146307E-2
106 124 1.1117037104445721E-2
106 125 1.0890852866066733E-2
106 126 1.0657422349712599E-2
106 127 1.0417413759735424E-2
106 128 1.0171502290401539E-2
106 129 9.920367004047512E-3
106 130 9.664687759983982E-3
106 131 9.405142213157209E-3
106 132 9.142402900584164E-3
106 133 8.87713443244969E-3
106 134 8.609990803507927E-3
106 135 8.341612839080366E-3
106 136 8.072625788505754E-3
106 137 7.803637077389106E-3
106 138 7.535234228435287E-3
106 139 7.267982959054018E-3
106 140 7.002425462304573E-3
106 141 6.739078876126403E-3
106 142 6.478433944192542E-3
106 143 6.220953870141162E-3
106 144 5.967073365401693E-3
106 145 5.717197889348822E-3
106 146 5.471703079103E-3
106 147 5.230934364960887E-3
106 148 4.995206766193312E-3
106 149 4.76480486080035E-3
106 150 4.53998292177005E-3
106 151 4.32096521145483E-3
106 152 4.107946424861764E-3
106 153 3.901092271952699E-3
106 154 3.7005401884686075E-3
106 155 3.5064001643299895E-3
106 156 3.3187556783199905E-3
106 157 3.1376647275268414E-3
106 158 2.9631609399036283E-3
106 159 2.795254758291549E-3
106 160 2.633934684342309E-3
106 161 2.4791685709596527E-3
106 162 2.330904952152349E-3
106 163 2.1890743995435897E-3
106 164 2.0535908952067335E-3
106 165 1.9243532109863046E-3
106 166 1.8012462850076334E-3
106 167 1.6841425866698377E-3
106 168 1.5729034620464647E-3
106 169 1.4673804522774983E-3
106 170 1.367416578217387E-3
106 171 1.2728475852982531E-3
106 172 1.183503143267951E-3
106 173 1.0992079961619481E-3
106 174 1.0197830585595082E-3
106 175 9.450464548521614E-4
106 176 8.748144989104668E-4
106 177 8.089026121686099E-4
106 178 7.471261787510978E-4
106 179 6.893013368380249E-4
106 180 6.352457060019391E-4
106 181 5.847790507477894E-4
106 182 5.377238809458774E-4
106 183 4.939059902648149E-4
106 184 4.531549340864822E-4
106 185 4.153044487175457E-4
106 186 3.801928140025063E-4
106 187 3.4766316169206583E-4
106 188 3.175637321289198E-4
106 189 2.8974808198221224E-4
106 190 2.64075245893548E-4
106 191 2.404098549935424E-4
106 192 2.186222153105597E-4
106 193 1.9858834912484408E-4
106 194 1.801900023241393E-4
106 195 2.1476812296117746E-4
106 196 2.0532363292945455E-4
106 197 1.9782571422922483E-4
106 198 1.922359679777963E-4
106 199 1.885255323648456E-4
106 200 1.8667513664563786E-4
107 8 5.746833410330014E-5
107 9 6.41150117582164E-5
107 10 7.145099732471724E-5
107 11 7.953793557242816E-5
107 12 8.844184310713185E-5
107 13 9.8233293538506E-5
107 14 1.0898759679241744E-4
107 15 1.2078497065307907E-4
107 16 1.3371070247100844E-4
107 17 1.478552988261544E-4
107 18 1.6331462079362345E-4
107 19 1.801900023241393E-4
107 20 1.9858834912484408E-4
107 21 2.186222153105597E-4
107 22 2.404098549935424E-4
107 23 2.64075245893548E-4
107 24 2.8974808198221224E-4
107 25 3.175637321289198E-4
107 26 3.4766316169206583E-4
107 27 3.801928140025063E-4
107 28 4.153044487175457E-4
107 29 4.531549340864822E-4
107 30 4.939059902648149E-4
107 31 5.377238809458774E-4
107 32 5.847790507477894E-4
107 33 6.352457060019391E-4
107 34 6.893013368380249E-4
107 35 7.471261787510978E-4
107 36 8.089026121686099E-4
107 37 8.748144989104668E-4
107 38 9.450464548521614E-4
107 39 1.0197830585595082E-3
107 40 1.0992079961619481E-3
107 41 1.183503143267951E-3
107 42 1.2728475852982531E-3
107 43 1.367416578217387E-3
107 44 1.4673804522774983E-3
107 45 1.5729034620464647E-3
107 46 1.6841425866698377E-3
107 47 1.8012462850076334E-3
107 48 1.9243532109863046E-3
107 49 2.0535908952067335E-3
107 50 2.1890743995435897E-3
107 51 2.330904952152349E-3
107 52 2.4791685709596527E-3
107 53 2.633934684342309E-3
107 54 2.795254758291549E-3
107 55 2.9631609399036283E-3
107 56 3.1376647275268414E-3
107 57 3.3187556783199905E-3
107 58 3.5064001643299895E-3
107 59 3.7005401884686075E-3
107 60 3.901092271952699E-3
107 61 4.107946424861764E-3
107 62 4.32096521145483E-3
107 63 4.53998292177005E-3
107 64 4.76480486080035E-3
107 65 4.995206766193312E-3
107 66 5.230934364960887E-3
107 67 5.471703079103E-3
107 68 5.717197889348822E-3
107 69 5.967073365401693E-3
107 70 6.220953870141162E-3
107 71 6.478433944192542E-3
107 72 6.739078876126403E-3
107 73 7.002425462304573E-3
107 74 7.267982959054018E-3
107 75 7.535234228435287E-3
107 76 7.803637077389106E-3
107 77 8.072625788505754E-3
107 78 8.341612839080366E-3
107 79 8.609990803507927E-3
107 80 8.87713443244969E-3
107 81 9.142402900584164E-3
107 82 9.405142213157209E-3
107 83 9.664687759983982E-3
107 84 9.920367004047512E-3
107 85 1.0171502290401539E-2
107 86 1.0417413759735424E-2
107 87 1.0657422349712599E-2
107 88 1.0890852866066733E-2
107 89 1.1117037104445721E-2
107 90 1.1335317003146307E-2
107 91 1.1545047806193727E-2
107 92 1.174560121570136E-2
107 93 1.1936368512104304E-2
107 94 1.211676362070477E-2
107 95 1.2286226103001317E-2
107 96 1.2444224051501605E-2
107 97 1.2590256867140038E-2
107 98 1.2723857899036553E-2
107 99 1.2844596927137332E-2
107 100 1.2952082469266922E-2
107 101 1.3045963895286368E-2
107 102 1.3125933332383884E-2
107 103 1.3191727347011566E-2
107 104 1.3243128390610169E-2
107 105 1.3279965998018756E-2
107 106 1.33021177293305E-2
107 107 1.330950984791183E-2
107 108 1.33021177293305E-2
107 109 1.3279965998018756E-2
107 110 1.3243128390610169E-2
107 111 1.3191727347011566E-2
107 112 1.3125933332383884E-2
107 113 1.3045963895286368E-2
107 114 1.2952082469266922E-2
107 115 1.2844596927137332E-2
107 116 1.2723857899036553E-2
107 117 1.2590256867140038E-2
107 118 1.2444224051501605E-2
107 119 1.2286226103001317E-2
107 120 1.211676362070477E-2
107 121 1.1936368512104304E-2
107 122 1.174560121570136E-2
107 123 1.1545047806193727E-2
107 124 1.1335317003146307E-2
107 125 1.1117037104445721E-2
107 126 1.0890852866066733E-2
107 127 1.0657422349712599E-2
107 128 1.0417413759735424E-2
107 129 1.0171502290401539E-2
107 130 9.920367004047512E-3
107 131 9.664687759983982E-3
107 132 9.405142213157209E-3
107 133 9.142402900584164E-3
107 134 8.87713443244969E-3
107 135 8.609990803507927E-3
107 136 8.341612839080366E-3
107 137 8.072625788505754E-3
107 138 7.803637077389106E-3
107 139 7.535234228435287E-3
107 140 7.267982959054018E-3
107 141 7.002425462304573E-3
107 142 6.739078876126403E-3
107 143 6.478433944192542E-3
107 144 6.220953870141162E-3
107 145 5.967073365401693E-3
107 146 5.717197889348822E-3
107 147 5.471703079103E-3
107 148 5.230934364960887E-3
107 149 4.995206766193312E-3
107 150 4.76480486080035E-3
107 151 4.53998292177005E-3
107 152 4.32096521145483E-3
107 153 4.107946424861764E-3
107 154 3.901092271952699E-3
107 155 3.7005401884686075E-3
107 156 3.5064001643299895E-3
107 157 3.3187556783199905E-3
107 158 3.1376647275268414E-3
107 159 2.9631609399036283E-3
107 160 2.795254758291549E-3
107 161 2.633934684342309E-3
107 162 2.4791685709596527E-3
107 163 2.330904952152349E-3
107 164 2.1890743995435897E-3
107 165 2.0535908952067335E-3
107 166 1.9243532109863046E-3
107 167 1.8012462850076334E-3
107 168 1.6841425866698377E-3
107 169 1.5729034620464647E-3
107 170 1.4673804522774983E-3
107 171 1.367416578217387E-3
107 172 1.2728475852982531E-3
107 173 1.183503143267951E-3
107 174 1.0992079961619481E-3
107 175 1.0197830585595082E-3
107 176 9.450464548521614E-4
107 177 8.748144989104668E-4
107 178 8.089026121686099E-4
107 179 7.471261787510978E-4
107 180 6.893013368380249E-4
107 181 6.352457060019391E-4
107 182 5.847790507477894E-4
107 183 5.377238809458774E-4
107 184 4.939059902648149E-4
107 185 4.531549340864822E-4
107 186 4.153044487175457E-4
107 187 3.801928140025063E-4
107 188 3.4766316169206583E-4
107 189 3.175637321289198E-4
107 190 2.8974808198221224E-4
107 191 2.64075245893548E-4
107 192 2.404098549935424E-4
107 193 2.186222153105597E-4
107 194 2.5004185129239807E-4
107 195 2.3765833642743945E-4
107 196 2.2742963255183984E-4
107 197 2.1930629615087163E-4
107 198 2.1324863804343658E-4
107 199 2.0922681376021093E-4
107 200 2.0722089033092345E-4
108 9 5.746833410330014E-5
108 10 6.41150117582164E-5
108 11 7.145099732471724E-5
108 12 7.953793557242816E-5
108 13 8.844184310713185E-5
108 14 9.8233293538506E-5
108 15 1.0898759679241744E-4
108 16 1.2078497065307907E-4
108 17 1.3371070247100844E-4
108 18 1.478552988261544E-4
108 19 1.6331462079362345E-4
108 20 1.801900023241393E-4
108 21 1.9858834912484408E-4
108 22 2.186222153105597E-4
108 23 2.404098549935424E-4
108 24 2.64075245893548E-4
108 25 2.8974808198221224E-4
108 26 3.175637321289198E-4
108 27 3.4766316169206583E-4
108 28 3.801928140025063E-4
108 29 4.153044487175457E-4
108 30 4.531549340864822E-4
108 31 4.939059902648149E-4
108 32 5.377238809458774E-4
108 33 5.847790507477894E-4
108 34 6.352457060019391E-4
108 35 6.893013368380249E-4
108 36 7.471261787510978E-4
108 37 8.089026121686099E-4
108 38 8.748144989104668E-4
108 39 9.450464548521614E-4
108 40 1.0197830585595082E-3
108 41 1.0992079961619481E-3
108 42 1.183503143267951E-3
108 43 1.2728475852982531E-3
108 44 1.367416578217387E-3
108 45 1.4673804522774983E-3
108 46 1.5729034620464647E-3
108 47 1.6841425866698377E-3
108 48 1.8012462850076334E-3
108 49 1.9243532109863046E-3
108 50 2.0535908952067335E-3
108 51 2.1890743995435897E-3
108 52 2.330904952152349E-3
108 53 2.4791685709596527E-3
108 54 2.633934684342309E-3
108 55 2.795254758291549E-3
108 56 2.9631609399036283E-3
108 57 3.1376647275268414E-3
108 58 3.3187556783199905E-3
108 59 3.5064001643299895E-3
108 60 3.7005401884686075E-3
108 61 3.901092271952699E-3
108 62 4.107946424861764E-3
108 63 4.32096521145483E-3
108 64 4.53998292177005E-3
108 65 4.76480486080035E-3
108 66 4.995206766193312E-3
108 67 5.230934364960887E-3
108 68 5.471703079103E-3
108 69 5.717197889348822E-3
108 70 5.967073365401693E-3
108 71 6.220953870141162E-3
108 72 6.478433944192542E-3
108 73 6.739078876126403E-3
108 74 7.002425462304573E-3
108 75 7.267982959054018E-3
108 76 7.535234228435287E-3
108 77 7.803637077389106E-3
108 78 8.072625788505754E-3
108 79 8.341612839080366E-3
108 80 8.609990803507927E-3
108 81 8.87713443244969E-3
108 82 9.142402900584164E-3
108 83 9.405142213157209E-3
108 84 9.664687759983982E-3
108 85 9.920367004047512E-3
108 86 1.0171502290401539E-2
108 87 1.0417413759735424E-2
108 88 1.0657422349712599E-2
108 89 1.0890852866066733E-2
108 90 1.1117037104445721E-2
108 91 1.1335317003146307E-2
108 92 1.1545047806193727E-2
108 93 1.174560121570136E-2
108 94 1.1936368512104304E-2
108 95 1.211676362070477E-2
108 96 1.2286226103001317E-2
108 97 1.2444224051501605E-2
108 98 1.2590256867140038E-2
108 99 1.2723857899036553E-2
108 100 1.2844596927137332E-2
108 101 1.2952082469266922E-2
108 102 1.3045963895286368E-2
108 103 1.3125933332383884E-2
108 104 1.3191727347011566E-2
108 105 1.3243128390610169E-2
108 106 1.3279965998018756E-2
108 107 1.33021177293305E-2
108 108 1.330950984791183E-2
108 109 1.33021177293305E-2
108 110 1.3279965998018756E-2
108 111 1.3243128390610169E-2
108 112 1.3191727347011566E-2
108 113 1.3125933332383884E-2
108 114 1.3045963895286368E-2
108 115 1.2952082469266922E-2
108 116 1.2844596927137332E-2
108 117 1.2723857899036553E-2
108 118 1.2590256867140038E-2
108 119 1.2444224051501605E-2
108 120 1.2286226103001317E-2
108 121 1.211676362070477E-2
108 122 1.1936368512104304E-2
108 123 1.174560121570136E-2
108 124 1.1545047806193727E-2
108 125 1.1335317003146307E-2
108 126 1.1117037104445721E-2
108 127 1.0890852866066733E-2
108 128 1.0657422349712599E-2
108 129 1.0417413759735424E-2
108 130 1.0171502290401539E-2
108 131 9.920367004047512E-3
108 132 9.664687759983982E-3
108 133 9.405142213157209E-3
108 134 9.142402900584164E-3
108 135 8.87713443244969E-3
108 136 8.609990803507927E-3
108 137 8.341612839080366E-3
108 138 8.072625788505754E-3
108 139 7.803637077389106E-3
108 140 7.535234228435287E-3
108 141 7.267982959054018E-3
108 142 7.002425462304573E-3
108 143 6.739078876126403E-3
108 144 6.478433944192542E-3
108 145 6.220953870141162E-3
108 146 5.967073365401693E-3
108 147 5.717197889348822E-3
108 148 5.471703079103E-3
108 149 5.230934364960887E-3
108 150 4.995206766193312E-3
108 151 4.76480486080035E-3
108 152 4.53998292177005E-3
108 153 4.32096521145483E-3
108 154 4.107946424861764E-3
108 155 3.901092271952699E-3
108 156 3.7005401884686075E-3
108 157 3.5064001643299895E-3
108 158 3.3187556783199905E-3
108 159 3.1376647275268414E-3
108 160 2.9631609399036283E-3
108 161 2.795254758291549E-3
108 162 2.633934684342309E-3
108 163 2.4791685709596527E-3
108 164 2.330904952152349E-3
108 165 2.1890743995435897E-3
108 166 2.0535908952067335E-3
108 167 1.9243532109863046E-3
108 168 1.8012462850076334E-3
108 169 1.6841425866698377E-3
108 170 1.5729034620464647E-3
108 171 1.4673804522774983E-3
108 172 1.367416578217387E-3
108 173 1.2728475852982531E-3
108 174 1.183503143267951E-3
108 175 1.0992079961619481E-3
108 176 1.0197830585595082E-3
108 177 9.450464548521614E-4
108 178 8.748144989104668E-4
108 179 8.089026121686099E-4
108 180 7.471261787510978E-4
108 181 6.893013368380249E-4
108 182 6.352457060019391E-4
108 183 5.847790507477894E-4
108 184 5.377238809458774E-4
108 185 4.939059902648149E-4
108 186 4.531549340864822E-4
108 187 4.153044487175457E-4
108 188 3.801928140025063E-4
108 189 3.4766316169206583E-4
108 190 3.175637321289198E-4
108 191 2.8974808198221224E-4
108 192 2.64075245893548E-4
108 193 2.918633571610964E-4
108 194 2.7609054941385983E-4
108 195 2.627033608830605E-4
108 196 2.5164099964885655E-4
108 197 2.428525563660516E-4
108 198 2.3629714193328625E-4
108 199 2.3194399600951442E-4
108 200 2.297725674454965E-4
109 10 5.746833410330014E-5
109 11 6.41150117582164E-5
109 12 7.145099732471724E-5
109 13 7.953793557242816E-5
109 14 8.844184310713185E-5
109 15 9.8233293538506E-5
109 16 1.0898759679241744E-4
109 17 1.2078497065307907E-4
109 18 1.3371070247100844E-4
109 19 1.478552988261544E-4
109 20 1.6331462079362345E-4
109 21 1.801900023241393E-4
109 22 1.9858834912484408E-4
109 23 2.186222153105597E-4
109 24 2.404098549935424E-4
109 25 2.64075245893548E-4
109 26 2.8974808198221224E-4
109 27 3.175637321289198E-4
109 28 3.4766316169206583E-4
109 29 3.801928140025063E-4
109 30 4.153044487175457E-4
109 31 4.531549340864822E-4
109 32 4.939059902648149E-4
109 33 5.377238809458774E-4
109 34 5.847790507477894E-4
109 35 6.352457060019391E-4
109 36 6.893013368380249E-4
109 37 7.471261787510978E-4
109 38 8.089026121686099E-4
109 39 8.748144989104668E-4
109 40 9.450464548521614E-4
109 41 1.0197830585595082E-3
109 42 1.0992079961619481E-3
109 43 1.183503143267951E-3
109 44 1.2728475852982531E-3
109 45 1.367416578217387E-3
109 46 1.4673804522774983E-3
109 47 1.5729034620464647E-3
109 48 1.6841425866698377E-3
109 49 1.8012462850076334E-3
109 50 1.9243532109863046E-3
109 51 2.0535908952067335E-3
109 52 2.1890743995435897E-3
109 53 2.330904952152349E-3
109 54 2.4791685709596527E-3
109 55 2.633934684342309E-3
109 56 2.795254758291549E-3
109 57 2.9631609399036283E-3
109 58 3.1376647275268414E-3
109 59 3.3187556783199905E-3
109 60 3.5064001643299895E-3
109 61 3.7005401884686075E-3
109 62 3.901092271952699E-3
109 63 4.107946424861764E-3
109 64 4.32096521145483E-3
109 65 4.53998292177005E-3
109 66 4.76480486080035E-3
109 67 4.995206766193312E-3
109 68 5.230934364960887E-3
109 69 5.471703079103E-3
109 70 5.717197889348822E-3
109 71 5.967073365401693E-3
109 72 6.220953870141162E-3
109 73 6.478433944192542E-3
109 74 6.739078876126403E-3
109 75 7.002425462304573E-3
109 76 7.267982959054018E-3
109 77 7.535234228435287E-3
109 78 7.803637077389106E-3
109 79 8.072625788505754E-3
109 80 8.341612839080366E-3
109 81 8.609990803507927E-3
109 82 8.87713443244969E-3
109 83 9.142402900584164E-3
109 84 9.405142213157209E-3
109 85 9.664687759983982E-3
109 86 9.920367004047512E-3
109 87 1.0171502290401539E-2
109 88 1.0417413759735424E-2
109 89 1.0657422349712599E-2
109 90 1.0890852866066733E-2
109 91 1.1117037104445721E-2
109 92 1.1335317003146307E-2
109 93 1.1545047806193727E-2
109 94 1.174560121570136E-2
109 95 1.1936368512104304E-2
109 96 1.211676362070477E-2
109 97 1.2286226103001317E-2
109 98 1.2444224051501605E-2
109 99 1.2590256867140038E-2
109 100 1.2723857899036553E-2
109 101 1.2844596927137332E-2
109 102 1.2952082469266922E-2
109 103 1.3045963895286368E-2
109 104 1.3125933332383884E-2
109 105 1.3191727347011566E-2
109 106 1.3243128390610169E-2
109 107 1.3279965998018756E-2
109 108 1.33021177293305E-2
109 109 1.330950984791183E-2
109 110 1.33021177293305E-2
109 111 1.3279965998018756E-2
109 112 1.3243128390610169E-2
109 113 1.3191727347011566E-2
109 114 1.3125933332383884E-2
109 115 1.3045963895286368E-2
109 116 1.2952082469266922E-2
109 117 1.2844596927137332E-2
109 118 1.2723857899036553E-2
109 119 1.2590256867140038E-2
109 120 1.2444224051501605E-2
109 121 1.2286226103001317E-2
109 122 1.211676362070477E-2
109 123 1.1936368512104304E-2
109 124 1.174560121570136E-2
109 125 1.1545047806193727E-2
109 126 1.1335317003146307E-2
109 127 1.1117037104445721E-2
109 128 1.0890852866066733E-2
109 129 1.0657422349712599E-2
109 130 1.0417413759735424E-2
109 131 1.0171502290401539E-2
109 132 9.920367004047512E-3
109 133 9.664687759983982E-3
109 134 9.405142213157209E-3
109 135 9.142402900584164E-3
109 136 8.87713443244969E-3
109 137 8.609990803507927E-3
109 138 8.341612839080366E-3
109 139 8.072625788505754E-3
109 140 7.803637077389106E-3
109 141 7.535234228435287E-3
109 142 7.267982959054018E-3
109 143 7.002425462304573E-3
109 144 6.739078876126403E-3
109 145 6.478433944192542E-3
109 146 6.220953870141162E-3
109 147 5.967073365401693E-3
109 148 5.717197889348822E-3
109 149 5.471703079103E-3
109 150 5.230934364960887E-3
109 151 4.995206766193312E-3
109 152 4.76480486080035E-3
109 153 4.53998292177005E-3
109 154 4.32096521145483E-3
109 155 4.107946424861764E-3
109 156 3.901092271952699E-3
109 157 3.7005401884686075E-3
109 158 3.5064001643299895E-3
109 159 3.3187556783199905E-3
109 160 3.1376647275268414E-3
109 161 2.9631609399036283E-3
109 162 2.795254758291549E-3
109 163 2.633934684342309E-3
109 164 2.4791685709596527E-3
109 165 2.330904952152349E-3
109 166 2.1890743995435897E-3
109 167 2.0535908952067335E-3
109 168 1.9243532109863046E-3
109 169 1.8012462850076334E-3
109 170 1.6841425866698377E-3
109 171 1.5729034620464647E-3
109 172 1.4673804522774983E-3
109 173 1.367416578217387E-3
109 174 1.2728475852982531E-3
109 175 1.183503143267951E-3
109 176 1.0992079961619481E-3
109 177 1.0197830585595082E-3
109 178 9.450464548521614E-4
109 179 8.748144989104668E-4
109 180 8.089026121686099E-4
109 181 7.471261787510978E-4
109 182 6.893013368380249E-4
109 183 6.352457060019391E-4
109 184 5.847790507477894E-4
109 185 5.377238809458774E-4
109 186 4.939059902648149E-4
109 187 4.531549340864822E-4
109 188 4.153044487175457E-4
109 189 3.801928140025063E-4
109 190 3.4766316169206583E-4
109 191 3.175637321289198E-4
109 192 3.412015841497662E-4
109 193 3.215435799968481E-4
109 194 3.045248667517588E-4
109 195 2.900732126352769E-4
109 196 2.781262846972722E-4
109 197 2.686318454312712E-4
109 198 2.615479143321294E-4
109 199 2.5684289561857184E-4
109 200 2.544956731240875E-4
110 11 5.746833410330014E-5
110 12 6.41150117582164E-5
110 13 7.145099732471724E-5
110 14 7.953793557242816E-5
110 15 8.844184310713185E-5
110 16 9.8233293538506E-5
110 17 1.0898759679241744E-4
110 18 1.2078497065307907E-4
110 19 1.3371070247100844E-4
110 20 1.478552988261544E-4
110 21 1.6331462079362345E-4
110 22 1.801900023241393E-4
110 23 1.9858834912484408E-4
110 24 2.186222153105597E-4
110 25 2.404098549935424E-4
110 26 2.64075245893548E-4
110 27 2.8974808198221224E-4
110 28 3.175637321289198E-4
110 29 3.4766316169206583E-4
110 30 3.801928140025063E-4
110 31 4.153044487175457E-4
110 32 4.531549340864822E-4
110 33 4.939059902648149E-4
110 34 5.377238809458774E-4
110 35 5.847790507477894E-4
110 36 6.352457060019391E-4
110 37 6.893013368380249E-4
110 38 7.471261787510978E-4
110 39 8.089026121686099E-4
110 40 8.748144989104668E-4
110 41 9.450464548521614E-4
110 42 1.0197830585595082E-3
110 43 1.0992079961619481E-3
110 44 1.183503143267951E-3
110 45 1.2728475852982531E-3
110 46 1.367416578217387E-3
110 47 1.4673804522774983E-3
110 48 1.5729034620464647E-3
110 49 1.6841425866698377E-3
110 50 1.8012462850076334E-3
110 51 1.9243532109863046E-3
110 52 2.0535908952067335E-3
110 53 2.1890743995435897E-3
110 54 2.330904952152349E-3
110 55 2.4791685709596527E-3
110 56 2.633934684342309E-3
110 57 2.795254758291549E-3
110 58 2.9631609399036283E-3
110 59 3.1376647275268414E-3
110 60 3.3187556783199905E-3
110 61 3.5064001643299895E-3
110 62 3.7005401884686075E-3
110 63 3.901092271952699E-3
110 64 4.107946424861764E-3
110 65 4.32096521145483E-3
110 66 4.53998292177005E-3
110 67 4.76480486080035E-3
110 68 4.995206766193312E-3
110 69 5.230934364960887E-3
110 70 5.471703079103E-3
110 71 5.717197889348822E-3
110 72 5.967073365401693E-3
110 73 6.220953870141162E-3
110 74 6.478433944192542E-3
110 75 6.739078876126403E-3
110 76 7.002425462304573E-3
110 77 7.267982959054018E-3
110 78 7.535234228435287E-3
110 79 7.803637077389106E-3
110 80 8.072625788505754E-3
110 81 8.341612839080366E-3
110 82 8.609990803507927E-3
110 83 8.87713443244969E-3
110 84 9.142402900584164E-3
110 85 9.405142213157209E-3
110 86 9.664687759983982E-3
110 87 9.920367004047512E-3
110 88 1.0171502290401539E-2
110 89 1.0417413759735424E-2
110 90 1.0657422349712599E-2
110 91 1.0890852866066733E-2
110 92 1.1117037104445721E-2
110 93 1.1335317003146307E-2
110 94 1.1545047806193727E-2
110 95 1.174560121570136E-2
110 96 1.1936368512104304E-2
110 97 1.211676362070477E-2
110 98 1.2286226103001317E-2
110 99 1.2444224051501605E-2
110 100 1.2590256867140038E-2
110 101 1.2723857899036553E-2
110 102 1.2844596927137332E-2
110 103 1.2952082469266922E-2
110 104 1.3045963895286368E-2
110 105 1.3125933332383884E-2
110 106 1.3191727347011566E-2
110 107 1.3243128390610169E-2
110 108 1.3279965998018756E-2
110 109 1.33021177293305E-2
110 110 1.330950984791183E-2
110 111 1.33021177293305E-2
110 112 1.3279965998018756E-2
110 113 1.3243128390610169E-2
110 114 1.3191727347011566E-2
110 115 1.3125933332383884E-2
110 116 1.3045963895286368E-2
110 117 1.2952082469266922E-2
110 118 1.2844596927137332E-2
110 119 1.2723857899036553E-2
110 120 1.2590256867140038E-2
110 121 1.2444224051501605E-2
110 122 1.2286226103001317E-2
110 123 1.211676362070477E-2
110 124 1.1936368512104304E-2
110 125 1.174560121570136E-2
110 126 1.1545047806193727E-2
110 127 1.1335317003146307E-2
110 128 1.1117037104445721E-2
110 129 1.0890852866066733E-2
110 130 1.0657422349712599E-2
110 131 1.0417413759735424E-2
110 132 1.0171502290401539E-2
110 133 9.920367004047512E-3
110 134 9.664687759983982E-3
110 135 9.405142213157209E-3
110 136 9.142402900584164E-3
110 137 8.87713443244969E-3
110 138 8.609990803507927E-3
110 139 8.341612839080366E-3
110 140 8.072625788505754E-3
110 141 7.803637077389106E-3
110 142 7.535234228435287E-3
110 143 7.267982959054018E-3
110 144 7.002425462304573E-3
110 145 6.739078876126403E-3
110 146 6.478433944192542E-3
110 147 6.220953870141162E-3
110 148 5.967073365401693E-3
110 149 5.717197889348822E-3
110 150 5.471703079103E-3
110 151 5.230934364960887E-3
110 152 4.995206766193312E-3
110 153 4.76480486080035E-3
110 154 4.53998292177005E-3
110 155 4.32096521145483E-3
110 156 4.107946424861764E-3
110 157 3.901092271952699E-3
110 158 3.7005401884686075E-3
110 159 3.5064001643299895E-3
110 160 3.3187556783199905E-3
110 161 3.1376647275268414E-3
110 162 2.9631609399036283E-3
110 163 2.795254758291549E-3
110 164 2.633934684342309E-3
110 165 2.4791685709596527E-3
110 166 2.330904952152349E-3
110 167 2.1890743995435897E-3
110 168 2.0535908952067335E-3
110 169 1.9243532109863046E-3
110 170 1.8012462850076334E-3
110 171 1.6841425866698377E-3
110 172 1.5729034620464647E-3
110 173 1.4673804522774983E-3
110 174 1.367416578217387E-3
110 175 1.2728475852982531E-3
110 176 1.183503143267951E-3
110 177 1.0992079961619481E-3
110 178 1.0197830585595082E-3
110 179 9.450464548521614E-4
110 180 8.748144989104668E-4
110 181 8.089026121686099E-4
110 182 7.471261787510978E-4
110 183 6.893013368380249E-4
110 184 6.352457060019391E-4
110 185 5.847790507477894E-4
110 186 5.377238809458774E-4
110 187 4.939059902648149E-4
110 188 4.531549340864822E-4
110 189 4.153044487175457E-4
110 190 3.801928140025063E-4
110 191 3.991166638596198E-4
110 192 3.7503206623221993E-4
110 193 3.5386309374042866E-4
110 194 3.3552624321826524E-4
110 195 3.1994779056597055E-4
110 196 3.0706405841769154E-4
110 197 2.9682164266335006E-4
110 198 2.8917759911655677E-4
110 199 2.840995914467025E-4
110 200 2.815660012971628E-4
111 12 5.746833410330014E-5
111 13 6.41150117582164E-5
111 14 7.145099732471724E-5
111 15 7.953793557242816E-5
111 16 8.844184310713185E-5
111 17 9.8233293538506E-5
111 18 1.0898759679241744E-4
111 19 1.2078497065307907E-4
111 20 1.3371070247100844E-4
111 21 1.478552988261544E-4
111 22 1.6331462079362345E-4
111 23 1.801900023241393E-4
111 24 1.9858834912484408E-4
111 25 2.186222153105597E-4
111 26 2.404098549935424E-4
111 27 2.64075245893548E-4
111 28 2.8974808198221224E-4
111 29 3.175637321289198E-4
111 30 3.4766316169206583E-4
111 31 3.801928140025063E-4
111 32 4.153044487175457E-4
111 33 4.531549340864822E-4
111 34 4.939059902648149E-4
111 35 5.377238809458774E-4
111 36 5.847790507477894E-4
111 37 6.352457060019391E-4
111 38 6.893013368380249E-4
111 39 7.471261787510978E-4
111 40 8.089026121686099E-4
111 41 8.748144989104668E-4
111 42 9.450464548521614E-4
111 43 1.0197830585595082E-3
111 44 1.0992079961619481E-3
111 45 1.183503143267951E-3
111 46 1.2728475852982531E-3
111 47 1.367416578217387E-3
111 48 1.4673804522774983E-3
111 49 1.5729034620464647E-3
111 50 1.6841425866698377E-3
111 51 1.8012462850076334E-3
111 52 1.9243532109863046E-3
111 53 2.0535908952067335E-3
111 54 2.1890743995435897E-3
111 55 2.330904952152349E-3
111 56 2.4791685709596527E-3
111 57 2.633934684342309E-3
111 58 2.795254758291549E-3
111 59 2.9631609399036283E-3
111 60 3.1376647275268414E-3
111 61 3.3187556783199905E-3
111 62 3.5064001643299895E-3
111 63 3.7005401884686075E-3
111 64 3.901092271952699E-3
111 65 4.107946424861764E-3
111 66 4.32096521145483E-3
111 67 4.53998292177005E-3
111 68 4.76480486080035E-3
111 69 4.995206766193312E-3
111 70 5.230934364960887E-3
111 71 5.471703079103E-3
111 72 5.717197889348822E-3
111 73 5.967073365401693E-3
111 74 6.220953870141162E-3
111 75 6.478433944192542E-3
111 76 6.739078876126403E-3
111 77 7.002425462304573E-3
111 78 7.267982959054018E-3
111 79 7.535234228435287E-3
111 80 7.803637077389106E-3
111 81 8.072625788505754E-3
111 82 8.341612839080366E-3
111 83 8.609990803507927E-3
111 84 8.87713443244969E-3
111 85 9.142402900584164E-3
111 86 9.405142213157209E-3
111 87 9.664687759983982E-3
111 88 9.920367004047512E-3
111 89 1.0171502290401539E-2
111 90 1.0417413759735424E-2
111 91 1.0657422349712599E-2
111 92 1.0890852866066733E-2
111 93 1.1117037104445721E-2
111 94 1.1335317003146307E-2
111 95 1.1545047806193727E-2
111 96 1.174560121570136E-2
111 97 1.1936368512104304E-2
111 98 1.211676362070477E-2
111 99 1.2286226103001317E-2
111 100 1.2444224051501605E-2
111 101 1.2590256867140038E-2
111 102 1.2723857899036553E-2
111 103 1.2844596927137332E-2
111 104 1.2952082469266922E-2
111 105 1.3045963895286368E-2
111 106 1.3125933332383884E-2
111 107 1.3191727347011566E-2
111 108 1.3243128390610169E-2
111 109 1.3279965998018756E-2
111 110 1.33021177293305E-2
111 111 1.330950984791183E-2
111 112 1.33021177293305E-2
111 113 1.3279965998018756E-2
111 114 1.3243128390610169E-2
111 115 1.3191727347011566E-2
111 116 1.3125933332383884E-2
111 117 1.3045963895286368E-2
111 118 1.2952082469266922E-2
111 119 1.2844596927137332E-2
111 120 1.2723857899036553E-2
111 121 1.2590256867140038E-2
111 122 1.2444224051501605E-2
111 123 1.2286226103001317E-2
111 124 1.211676362070477E-2
111 125 1.1936368512104304E-2
111 126 1.174560121570136E-2
111 127 1.1545047806193727E-2
111 128 1.1335317003146307E-2
111 129 1.1117037104445721E-2
111 130 1.0890852866066733E-2
111 131 1.0657422349712599E-2
111 132 1.0417413759735424E-2
111 133 1.0171502290401539E-2
111 134 9.920367004047512E-3
111 135 9.664687759983982E-3
111 136 9.405142213157209E-3
111 137 9.142402900584164E-3
111 138 8.87713443244969E-3
111 139 8.609990803507927E-3
111 140 8.341612839080366E-3
111 141 8.072625788505754E-3
111 142 7.803637077389106E-3
111 143 7.535234228435287E-3
111 144 7.267982959054018E-3
111 145 7.002425462304573E-3
111 146 6.739078876126403E-3
111 147 6.478433944192542E-3
111 148 6.220953870141162E-3
111 149 5.967073365401693E-3
111 150 5.717197889348822E-3
111 151 5.471703079103E-3
111 152 5.230934364960887E-3
111 153 4.995206766193312E-3
111 154 4.76480486080035E-3
111 155 4.53998292177005E-3
111 156 4.32096521145483E-3
111 157 4.107946424861764E-3
111 158 3.901092271952699E-3
111 159 3.7005401884686075E-3
111 160 3.5064001643299895E-3
111 161 3.3187556783199905E-3
111 162 3.1376647275268414E-3
111 163 2.9631609399036283E-3
111 164 2.795254758291549E-3
111 165 2.633934684342309E-3
111 166 2.4791685709596527E-3
111 167 2.330904952152349E-3
111 168 2.1890743995435897E-3
111 169 2.0535908952067335E-3
111 170 1.9243532109863046E-3
111 171 1.8012462850076334E-3
111 172 1.6841425866698377E-3
111 173 1.5729034620464647E-3
111 174 1.4673804522774983E-3
111 175 1.367416578217387E-3
111 176 1.2728475852982531E-3
111 177 1.183503143267951E-3
111 178 1.0992079961619481E-3
111 179 1.0197830585595082E-3
111 180 9.450464548521614E-4
111 181 8.748144989104668E-4
111 182 8.089026121686099E-4
111 183 7.471261787510978E-4
111 184 6.893013368380249E-4
111 185 6.352457060019391E-4
111 186 5.847790507477894E-4
111 187 5.377238809458774E-4
111 188 4.939059902648149E-4
111 189 4.531549340864822E-4
111 190 4.667579508850997E-4
111 191 4.376611481058064E-4
111 192 4.1177817345028225E-4
111 193 3.8901472945363706E-4
111 194 3.692860175546404E-4
111 195 3.5251708900067987E-4
111 196 3.386431485320484E-4
111 197 3.276098121029771E-4
111 198 3.193733197779232E-4
111 199 3.1390070479514774E-4
111 200 3.111699196197778E-4
112 13 5.746833410330014E-5
112 14 6.41150117582164E-5
112 15 7.145099732471724E-5
112 16 7.953793557242816E-5
112 17 8.844184310713185E-5
112 18 9.8233293538506E-5
112 19 1.0898759679241744E-4
112 20 1.2078497065307907E-4
112 21 1.3371070247100844E-4
112 22 1.478552988261544E-4
112 23 1.6331462079362345E-4
112 24 1.801900023241393E-4
112 25 1.9858834912484408E-4
112 26 2.186222153105597E-4
112 27 2.404098549935424E-4
112 28 2.64075245893548E-4
112 29 2.8974808198221224E-4
112 30 3.175637321289198E-4
112 31 3.4766316169206583E-4
112 32 3.801928140025063E-4
112 33 4.153044487175457E-4
112 34 4.531549340864822E-4
112 35 4.939059902648149E-4
112 36 5.377238809458774E-4
112 37 5.847790507477894E-4
112 38 6.352457060019391E-4
112 39 6.893013368380249E-4
112 40 7.471261787510978E-4
112 41 8.089026121686099E-4
112 42 8.748144989104668E-4
112 43 9.450464548521614E-4
112 44 1.0197830585595082E-3
112 45 1.0992079961619481E-3
112 46 1.183503143267951E-3
112 47 1.2728475852982531E-3
112 48 1.367416578217387E-3
112 49 1.4673804522774983E-3
112 50 1.5729034620464647E-3
112 51 1.6841425866698377E-3
112 52 1.8012462850076334E-3
112 53 1.9243532109863046E-3
112 54 2.0535908952067335E-3
112 55 2.1890743995435897E-3
112 56 2.330904952152349E-3
112 57 2.4791685709596527E-3
112 58 2.633934684342309E-3
112 59 2.795254758291549E-3
112 60 2.9631609399036283E-3
112 61 3.1376647275268414E-3
112 62 3.3187556783199905E-3
112 63 3.5064001643299895E-3
112 64 3.7005401884686075E-3
112 65 3.901092271952699E-3
112 66 4.107946424861764E-3
112 67 4.32096521145483E-3
112 68 4.53998292177005E-3
112 69 4.76480486080035E-3
112 70 4.995206766193312E-3
112 71 5.230934364960887E-3
112 72 5.471703079103E-3
112 73 5.717197889348822E-3
112 74 5.967073365401693E-3
112 75 6.220953870141162E-3
112 76 6.478433944192542E-3
112 77 6.739078876126403E-3
112 78 7.002425462304573E-3
112 79 7.267982959054018E-3
112 80 7.535234228435287E-3
112 81 7.803637077389106E-3
112 82 8.072625788505754E-3
112 83 8.341612839080366E-3
112 84 8.609990803507927E-3
112 85 8.87713443244969E-3
112 86 9.142402900584164E-3
112 87 9.405142213157209E-3
112 88 9.664687759983982E-3
112 89 9.920367004047512E-3
112 90 1.0171502290401539E-2
112 91 1.0417413759735424E-2
112 92 1.0657422349712599E-2
112 93 1.0890852866066733E-2
112 94 1.1117037104445721E-2
112 95 1.1335317003146307E-2
112 96 1.1545047806193727E-2
112 97 1.174560121570136E-2
112 98 1.1936368512104304E-2
112 99 1.211676362070477E-2
112 100 1.2286226103001317E-2
112 101 1.2444224051501605E-2
112 102 1.2590256867140038E-2
112 103 1.2723857899036553E-2
112 104 1.2844596927137332E-2
112 105 1.2952082469266922E-2
112 106 1.3045963895286368E-2
112 107 1.3125933332383884E-2
112 108 1.3191727347011566E-2
112 109 1.3243128390610169E-2
112 110 1.3279965998018756E-2
112 111 1.33021177293305E-2
112 112 1.330950984791183E-2
112 113 1.33021177293305E-2
112 114 1.3279965998018756E-2
112 115 1.3243128390610169E-2
112 116 1.3191727347011566E-2
112 117 1.3125933332383884E-2
112 118 1.3045963895286368E-2
112 119 1.2952082469266922E-2
112 120 1.2844596927137332E-2
112 121 1.2723857899036553E-2
112 122 1.2590256867140038E-2
112 123 1.2444224051501605E-2
112 124 1.2286226103001317E-2
112 125 1.211676362070477E-2
112 126 1.1936368512104304E-2
112 127 1.174560121570136E-2
112 128 1.1545047806193727E-2
112 129 1.1335317003146307E-2
112 130 1.1117037104445721E-2
112 131 1.0890852866066733E-2
112 132 1.0657422349712599E-2
112 133 1.0417413759735424E-2
112 134 1.0171502290401539E-2
112 135 9.920367004047512E-3
112 136 9.664687759983982E-3
112 137 9.405142213157209E-3
112 138 9.142402900584164E-3
112 139 8.87713443244969E-3
112 140 8.609990803507927E-3
112 141 8.341612839080366E-3
112 142 8.072625788505754E-3
112 143 7.803637077389106E-3
112 144 7.535234228435287E-3
112 145 7.267982959054018E-3
112 146 7.002425462304573E-3
112 147 6.739078876126403E-3
112 148 6.478433944192542E-3
112 149 6.220953870141162E-3
112 150 5.967073365401693E-3
112 151 5.717197889348822E-3
112 152 5.471703079103E-3
112 153 5.230934364960887E-3
112 154 4.995206766193312E-3
112 155 4.76480486080035E-3
112 156 4.53998292177005E-3
112 157 4.32096521145483E-3
112 158 4.107946424861764E-3
112 159 3.901092271952699E-3
112 160 3.7005401884686075E-3
112 161 3.5064001643299895E-3
112 162 3.3187556783199905E-3
112 163 3.1376647275268414E-3
112 164 2.9631609399036283E-3
112 165 2.795254758291549E-3
112 166 2.633934684342309E-3
112 167 2.4791685709596527E-3
112 168 2.330904952152349E-3
112 169 2.1890743995435897E-3
112 170 2.0535908952067335E-3
112 171 1.9243532109863046E-3
112 172 1.8012462850076334E-3
112 173 1.6841425866698377E-3
112 174 1.5729034620464647E-3
112 175 1.4673804522774983E-3
112 176 1.367416578217387E-3
112 177 1.2728475852982531E-3
112 178 1.183503143267951E-3
112 179 1.0992079961619481E-3
112 180 1.0197830585595082E-3
112 181 9.450464548521614E-4
112 182 8.748144989104668E-4
112 183 8.089026121686099E-4
112 184 7.471261787510978E-4
112 185 6.893013368380249E-4
112 186 6.352457060019391E-4
112 187 5.847790507477894E-4
112 188 5.377238809458774E-4
112 189 5.453594924323689E-4
112 190 5.106232681897823E-4
112 191 4.7941946047576215E-4
112 192 4.5164381132722356E-4
112 193 4.27201097264494E-4
112 194 4.060055752360517E-4
112 195 3.879813755207182E-4
112 196 3.7306284268596545E-4
112 197 3.611948256466215E-4
112 198 3.523329177815681E-4
112 199 3.464436479509985E-4
112 200 3.4350462311776275E-4
113 14 5.746833410330014E-5
113 15 6.41150117582164E-5
113 16 7.145099732471724E-5
113 17 7.953793557242816E-5
113 18 8.844184310713185E-5
113 19 9.8233293538506E-5
113 20 1.0898759679241744E-4
113 21 1.2078497065307907E-4
113 22 1.3371070247100844E-4
113 23 1.478552988261544E-4
113 24 1.6331462079362345E-4
113 25 1.801900023241393E-4
113 26 1.9858834912484408E-4
113 27 2.186222153105597E-4
113 28 2.404098549935424E-4
113 29 2.64075245893548E-4
113 30 2.8974808198221224E-4
113 31 3.175637321289198E-4
113 32 3.4766316169206583E-4
113 33 3.801928140025063E-4
113 34 4.153044487175457E-4
113 35 4.531549340864822E-4
113 36 4.939059902648149E-4
113 37 5.377238809458774E-4
113 38 5.847790507477894E-4
113 39 6.352457060019391E-4
113 40 6.893013368380249E-4
113 41 7.471261787510978E-4
113 42 8.089026121686099E-4
113 43 8.748144989104668E-4
113 44 9.450464548521614E-4
113 45 1.0197830585595082E-3
113 46 1.0992079961619481E-3
113 47 1.183503143267951E-3
113 48 1.2728475852982531E-3
113 49 1.367416578217387E-3
113 50 1.4673804522774983E-3
113 51 1.5729034620464647E-3
113 52 1.6841425866698377E-3
113 53 1.8012462850076334E-3
113 54 1.9243532109863046E-3
113 55 2.0535908952067335E-3
113 56 2.1890743995435897E-3
113 57 2.330904952152349E-3
113 58 2.4791685709596527E-3
113 59 2.633934684342309E-3
113 60 2.795254758291549E-3
113 61 2.9631609399036283E-3
113 62 3.1376647275268414E-3
113 63 3.3187556783199905E-3
113 64 3.5064001643299895E-3
113 65 3.7005401884686075E-3
113 66 3.901092271952699E-3
113 67 4.107946424861764E-3
113 68 4.32096521145483E-3
113 69 4.53998292177005E-3
113 70 4.76480486080035E-3
113 71 4.995206766193312E-3
113 72 5.230934364960887E-3
113 73 5.471703079103E-3
113 74 5.717197889348822E-3
113 75 5.967073365401693E-3
113 76 6.220953870141162E-3
113 77 6.478433944192542E-3
113 78 6.739078876126403E-3
113 79 7.002425462304573E-3
113 80 7.267982959054018E-3
113 81 7.535234228435287E-3
113 82 7.803637077389106E-3
113 83 8.072625788505754E-3
113 84 8.341612839080366E-3
113 85 8.609990803507927E-3
113 86 8.87713443244969E-3
113 87 9.142402900584164E-3
113 88 9.405142213157209E-3
113 89 9.664687759983982E-3
113 90 9.920367004047512E-3
113 91 1.0171502290401539E-2
113 92 1.0417413759735424E-2
113 93 1.0657422349712599E-2
113 94 1.0890852866066733E-2
113 95 1.1117037104445721E-2
113 96 1.1335317003146307E-2
113 97 1.1545047806193727E-2
113 98 1.174560121570136E-2
113 99 1.1936368512104304E-2
113 100 1.211676362070477E-2
113 101 1.2286226103001317E-2
113 102 1.2444224051501605E-2
113 103 1.2590256867140038E-2
113 104 1.2723857899036553E-2
113 105 1.2844596927137332E-2
113 106 1.2952082469266922E-2
113 107 1.3045963895286368E-2
113 108 1.3125933332383884E-2
113 109 1.3191727347011566E-2
113 110 1.3243128390610169E-2
113 111 1.3279965998018756E-2
113 112 1.33021177293305E-2
113 113 1.330950984791183E-2
113 114 1.33021177293305E-2
113 115 1.3279965998018756E-2
113 116 1.3243128390610169E-2
113 117 1.3191727347011566E-2
113 118 1.3125933332383884E-2
113 119 1.3045963895286368E-2
113 120 1.2952082469266922E-2
113 121 1.2844596927137332E-2
113 122 1.2723857899036553E-2
113 123 1.2590256867140038E-2
113 124 1.2444224051501605E-2
113 125 1.2286226103001317E-2
113 126 1.211676362070477E-2
113 127 1.1936368512104304E-2
113 128 1.174560121570136E-2
113 129 1.1545047806193727E-2
113 130 1.1335317003146307E-2
113 131 1.1117037104445721E-2
113 132 1.0890852866066733E-2
113 133 1.0657422349712599E-2
113 134 1.0417413759735424E-2
113 135 1.0171502290401539E-2
113 136 9.920367004047512E-3
113 137 9.664687759983982E-3
113 138 9.405142213157209E-3
113 139 9.142402900584164E-3
113 140 8.87713443244969E-3
113 141 8.609990803507927E-3
113 142 8.341612839080366E-3
113 143 8.072625788505754E-3
113 144 7.803637077389106E-3
113 145 7.535234228435287E-3
113 146 7.267982959054018E-3
113 147 7.002425462304573E-3
113 148 6.739078876126403E-3
113 149 6.478433944192542E-3
113 150 6.220953870141162E-3
113 151 5.967073365401693E-3
113 152 5.717197889348822E-3
113 153 5.471703079103E-3
113 154 5.230934364960887E-3
113 155 4.995206766193312E-3
113 156 4.76480486080035E-3
113 157 4.53998292177005E-3
113 158 4.32096521145483E-3
113 159 4.107946424861764E-3
113 160 3.901092271952699E-3
113 161 3.7005401884686075E-3
113 162 3.5064001643299895E-3
113 163 3.3187556783199905E-3
113 164 3.1376647275268414E-3
113 165 2.9631609399036283E-3
113 166 2.795254758291549E-3
113 167 2.633934684342309E-3
113 168 2.4791685709596527E-3
113 169 2.330904952152349E-3
113 170 2.1890743995435897E-3
113 171 2.0535908952067335E-3
113 172 1.9243532109863046E-3
113 173 1.8012462850076334E-3
113 174 1.6841425866698377E-3
113 175 1.5729034620464647E-3
113 176 1.4673804522774983E-3
113 177 1.367416578217387E-3
113 178 1.2728475852982531E-3
113 179 1.183503143267951E-3
113 180 1.0992079961619481E-3
113 181 1.0197830585595082E-3
113 182 9.450464548521614E-4
113 183 8.748144989104668E-4
113 184 8.089026121686099E-4
113 185 7.471261787510978E-4
113 186 6.893013368380249E-4
113 187 6.352457060019391E-4
113 188 6.362325529153434E-4
113 189 5.951922150491775E-4
113 190 5.580210020230313E-4
113 191 5.246059314111994E-4
113 192 4.948423842899739E-4
113 193 4.686346571096382E-4
113 194 4.458964552305718E-4
113 195 4.2655132892133727E-4
113 196 4.1053305263529134E-4
113 197 3.9778594836455643E-4
113 198 3.8826515381969683E-4
113 199 3.819368361041831E-4
113 200 3.787783514489834E-4
114 15 5.746833410330014E-5
114 16 6.41150117582164E-5
114 17 7.145099732471724E-5
114 18 7.953793557242816E-5
114 19 8.844184310713185E-5
114 20 9.8233293538506E-5
114 21 1.0898759679241744E-4
114 22 1.2078497065307907E-4
114 23 1.3371070247100844E-4
114 24 1.478552988261544E-4
114 25 1.6331462079362345E-4
114 26 1.801900023241393E-4
114 27 1.9858834912484408E-4
114 28 2.186222153105597E-4
114 29 2.404098549935424E-4
114 30 2.64075245893548E-4
114 31 2.8974808198221224E-4
114 32 3.175637321289198E-4
114 33 3.4766316169206583E-4
114 34 3.801928140025063E-4
114 35 4.153044487175457E-4
114 36 4.531549340864822E-4
114 37 4.939059902648149E-4
114 38 5.377238809458774E-4
114 39 5.847790507477894E-4
114 40 6.352457060019391E-4
114 41 6.893013368380249E-4
114 42 7.471261787510978E-4
114 43 8.089026121686099E-4
114 44 8.748144989104668E-4
114 45 9.450464548521614E-4
114 46 1.0197830585595082E-3
114 47 1.0992079961619481E-3
114 48 1.183503143267951E-3
114 49 1.2728475852982531E-3
114 50 1.367416578217387E-3
114 51 1.4673804522774983E-3
114 52 1.5729034620464647E-3
114 53 1.6841425866698377E-3
114 54 1.8012462850076334E-3
114 55 1.9243532109863046E-3
114 56 2.0535908952067335E-3
114 57 2.1890743995435897E-3
114 58 2.330904952152349E-3
114 59 2.4791685709596527E-3
114 60 2.633934684342309E-3
114 61 2.795254758291549E-3
114 62 2.9631609399036283E-3
114 63 3.1376647275268414E-3
114 64 3.3187556783199905E-3
114 65 3.5064001643299895E-3
114 66 3.7005401884686075E-3
114 67 3.901092271952699E-3
114 68 4.107946424861764E-3
114 69 4.32096521145483E-3
114 70 4.53998292177005E-3
114 71 4.76480486080035E-3
114 72 4.995206766193312E-3
114 73 5.230934364960887E-3
114 74 5.471703079103E-3
114 75 5.717197889348822E-3
114 76 5.967073365401693E-3
114 77 6.220953870141162E-3
114 78 6.478433944192542E-3
114 79 6.739078876126403E-3
114 80 7.002425462304573E-3
114 81 7.267982959054018E-3
114 82 7.535234228435287E-3
114 83 7.803637077389106E-3
114 84 8.072625788505754E-3
114 85 8.341612839080366E-3
114 86 8.609990803507927E-3
114 87 8.87713443244969E-3
114 88 9.142402900584164E-3
114 89 9.405142213157209E-3
114 90 9.664687759983982E-3
114 91 9.920367004047512E-3
114 92 1.0171502290401539E-2
114 93 1.0417413759735424E-2
114 94 1.0657422349712599E-2
114 95 1.0890852866066733E-2
114 96 1.1117037104445721E-2
114 97 1.1335317003146307E-2
114 98 1.1545047806193727E-2
114 99 1.174560121570136E-2
114 100 1.1936368512104304E-2
114 101 1.211676362070477E-2
114 102 1.2286226103001317E-2
114 103 1.2444224051501605E-2
114 104 1.2590256867140038E-2
114 105 1.2723857899036553E-2
114 106 1.2844596927137332E-2
114 107 1.2952082469266922E-2
114 108 1.3045963895286368E-2
114 109 1.3125933332383884E-2
114 110 1.3191727347011566E-2
114 111 1.3243128390610169E-2
114 112 1.3279965998018756E-2
114 113 1.33021177293305E-2
114 114 1.330950984791183E-2
114 115 1.33021177293305E-2
114 116 1.3279965998018756E-2
114 117 1.3243128390610169E-2
114 118 1.3191727347011566E-2
114 119 1.3125933332383884E-2
114 120 1.3045963895286368E-2
114 121 1.2952082469266922E-2
114 122 1.2844596927137332E-2
114 123 1.2723857899036553E-2
114 124 1.2590256867140038E-2
114 125 1.2444224051501605E-2
114 126 1.2286226103001317E-2
114 127 1.211676362070477E-2
114 128 1.1936368512104304E-2
114 129 1.174560121570136E-2
114 130 1.1545047806193727E-2
114 131 1.1335317003146307E-2
114 132 1.1117037104445721E-2
114 133 1.0890852866066733E-2
114 134 1.0657422349712599E-2
114 135 1.0417413759735424E-2
114 136 1.0171502290401539E-2
114 137 9.920367004047512E-3
114 138 9.664687759983982E-3
114 139 9.405142213157209E-3
114 140 9.142402900584164E-3
114 141 8.87713443244969E-3
114 142 8.609990803507927E-3
114 143 8.341612839080366E-3
114 144 8.072625788505754E-3
114 145 7.803637077389106E-3
114 146 7.535234228435287E-3
114 147 7.267982959054018E-3
114 148 7.002425462304573E-3
114 149 6.739078876126403E-3
114 150 6.478433944192542E-3
114 151 6.220953870141162E-3
114 152 5.967073365401693E-3
114 153 5.717197889348822E-3
114 154 5.471703079103E-3
114 155 5.230934364960887E-3
114 156 4.995206766193312E-3
114 157 4.76480486080035E-3
114 158 4.53998292177005E-3
114 159 4.32096521145483E-3
114 160 4.107946424861764E-3
114 161 3.901092271952699E-3
114 162 3.7005401884686075E-3
114 163 3.5064001643299895E-3
114 164 3.3187556783199905E-3
114 165 3.1376647275268414E-3
114 166 2.9631609399036283E-3
114 167 2.795254758291549E-3
114 168 2.633934684342309E-3
114 169 2.4791685709596527E-3
114 170 2.330904952152349E-3
114 171 2.1890743995435897E-3
114 172 2.0535908952067335E-3
114 173 1.9243532109863046E-3
114 174 1.8012462850076334E-3
114 175 1.6841425866698377E-3
114 176 1.5729034620464647E-3
114 177 1.4673804522774983E-3
114 178 1.367416578217387E-3
114 179 1.2728475852982531E-3
114 180 1.183503143267951E-3
114 181 1.0992079961619481E-3
114 182 1.0197830585595082E-3
114 183 9.450464548521614E-4
114 184 8.748144989104668E-4
114 185 8.089026121686099E-4
114 186 7.471261787510978E-4
114 187 7.407548390055789E-4
114 188 6.927140401052392E-4
114 189 6.488940625060058E-4
114 190 6.091748782705946E-4
114 191 5.734439258372431E-4
114 192 5.41596777193614E-4
114 193 5.135377422560518E-4
114 194 4.891804107949238E-4
114 195 4.6844813234514493E-4
114 196 4.5127443459992825E-4
114 197 4.3760338080836667E-4
114 198 4.2738986668717144E-4
114 199 4.205998573176817E-4
114 200 4.172105644354038E-4
115 16 5.746833410330014E-5
115 17 6.41150117582164E-5
115 18 7.145099732471724E-5
115 19 7.953793557242816E-5
115 20 8.844184310713185E-5
115 21 9.8233293538506E-5
115 22 1.0898759679241744E-4
115 23 1.2078497065307907E-4
115 24 1.3371070247100844E-4
115 25 1.478552988261544E-4
115 26 1.6331462079362345E-4
115 27 1.801900023241393E-4
115 28 1.9858834912484408E-4
115 29 2.186222153105597E-4
115 30 2.404098549935424E-4
115 31 2.64075245893548E-4
115 32 2.8974808198221224E-4
115 33 3.175637321289198E-4
115 34 3.4766316169206583E-4
115 35 3.801928140025063E-4
115 36 4.153044487175457E-4
115 37 4.531549340864822E-4
115 38 4.939059902648149E-4
115 39 5.377238809458774E-4
115 40 5.847790507477894E-4
115 41 6.352457060019391E-4
115 42 6.893013368380249E-4
115 43 7.471261787510978E-4
115 44 8.089026121686099E-4
115 45 8.748144989104668E-4
115 46 9.450464548521614E-4
115 47 1.0197830585595082E-3
115 48 1.0992079961619481E-3
115 49 1.183503143267951E-3
115 50 1.2728475852982531E-3
115 51 1.367416578217387E-3
115 52 1.4673804522774983E-3
115 53 1.5729034620464647E-3
115 54 1.6841425866698377E-3
115 55 1.8012462850076334E-3
115 56 1.9243532109863046E-3
115 57 2.0535908952067335E-3
115 58 2.1890743995435897E-3
115 59 2.330904952152349E-3
115 60 2.4791685709596527E-3
115 61 2.633934684342309E-3
115 62 2.795254758291549E-3
115 63 2.9631609399036283E-3
115 64 3.1376647275268414E-3
115 65 3.3187556783199905E-3
115 66 3.5064001643299895E-3
115 67 3.7005401884686075E-3
115 68 3.901092271952699E-3
115 69 4.107946424861764E-3
115 70 4.32096521145483E-3
115 71 4.53998292177005E-3
115 72 4.76480486080035E-3
115 73 4.995206766193312E-3
115 74 5.230934364960887E-3
115 75 5.471703079103E-3
115 76 5.717197889348822E-3
115 77 5.967073365401693E-3
115 78 6.220953870141162E-3
115 79 6.478433944192542E-3
115 80 6.739078876126403E-3
115 81 7.002425462304573E-3
115 82 7.267982959054018E-3
115 83 7.535234228435287E-3
115 84 7.803637077389106E-3
115 85 8.072625788505754E-3
115 86 8.341612839080366E-3
115 87 8.609990803507927E-3
115 88 8.87713443244969E-3
115 89 9.142402900584164E-3
115 90 9.405142213157209E-3
115 91 9.664687759983982E-3
115 92 9.920367004047512E-3
115 93 1.0171502290401539E-2
115 94 1.0417413759735424E-2
115 95 1.0657422349712599E-2
115 96 1.0890852866066733E-2
115 97 1.1117037104445721E-2
115 98 1.1335317003146307E-2
115 99 1.1545047806193727E-2
115 100 1.174560121570136E-2
115 101 1.1936368512104304E-2
115 102 1.211676362070477E-2
115 103 1.2286226103001317E-2
115 104 1.2444224051501605E-2
115 105 1.2590256867140038E-2
115 106 1.2723857899036553E-2
115 107 1.2844596927137332E-2
115 108 1.2952082469266922E-2
115 109 1.3045963895286368E-2
115 110 1.3125933332383884E-2
115 111 1.3191727347011566E-2
115 112 1.3243128390610169E-2
115 113 1.3279965998018756E-2
115 114 1.33021177293305E-2
115 115 1.330950984791183E-2
115 116 1.33021177293305E-2
115 117 1.3279965998018756E-2
115 118 1.3243128390610169E-2
115 119 1.3191727347011566E-2
115 120 1.3125933332383884E-2
115 121 1.3045963895286368E-2
115 122 1.2952082469266922E-2
115 123 1.2844596927137332E-2
115 124 1.2723857899036553E-2
115 125 1.2590256867140038E-2
115 126 1.2444224051501605E-2
115 127 1.2286226103001317E-2
115 128 1.211676362070477E-2
115 129 1.1936368512104304E-2
115 130 1.174560121570136E-2
115 131 1.1545047806193727E-2
115 132 1.1335317003146307E-2
115 133 1.1117037104445721E-2
115 134 1.0890852866066733E-2
115 135 1.0657422349712599E-2
115 136 1.0417413759735424E-2
115 137 1.0171502290401539E-2
115 138 9.920367004047512E-3
115 139 9.664687759983982E-3
115 140 9.405142213157209E-3
115 141 9.142402900584164E-3
115 142 8.87713443244969E-3
115 143 8.609990803507927E-3
115 144 8.341612839080366E-3
115 145 8.072625788505754E-3
115 146 7.803637077389106E-3
115 147 7.535234228435287E-3
115 148 7.267982959054018E-3
115 149 7.002425462304573E-3
115 150 6.739078876126403E-3
115 151 6.478433944192542E-3
115 152 6.220953870141162E-3
115 153 5.967073365401693E-3
115 154 5.717197889348822E-3
115 155 5.471703079103E-3
115 156 5.230934364960887E-3
115 157 4.995206766193312E-3
115 158 4.76480486080035E-3
115 159 4.53998292177005E-3
115 160 4.32096521145483E-3
115 161 4.107946424861764E-3
115 162 3.901092271952699E-3
115 163 3.7005401884686075E-3
115 164 3.5064001643299895E-3
115 165 3.3187556783199905E-3
115 166 3.1376647275268414E-3
115 167 2.9631609399036283E-3
115 168 2.795254758291549E-3
115 169 2.633934684342309E-3
115 170 2.4791685709596527E-3
115 171 2.330904952152349E-3
115 172 2.1890743995435897E-3
115 173 2.0535908952067335E-3
115 174 1.9243532109863046E-3
115 175 1.8012462850076334E-3
115 176 1.6841425866698377E-3
115 177 1.5729034620464647E-3
115 178 1.4673804522774983E-3
115 179 1.367416578217387E-3
115 180 1.2728475852982531E-3
115 181 1.183503143267951E-3
115 182 1.0992079961619481E-3
115 183 1.0197830585595082E-3
115 184 9.450464548521614E-4
115 185 8.748144989104668E-4
115 186 8.603561143361639E-4
115 187 8.045945128543979E-4
115 188 7.534163485962413E-4
115 189 7.066967033266563E-4
115 190 6.643169863202176E-4
115 191 6.261657240530092E-4
115 192 5.921392838033209E-4
115 193 5.621425308788996E-4
115 194 5.360894193706248E-4
115 195 5.139035164735148E-4
115 196 4.955184605182203E-4
115 197 4.8087835292254325E-4
115 198 4.6993808430635154E-4
115 199 4.626635950183921E-4
115 200 4.590320703041021E-4
116 17 5.746833410330014E-5
116 18 6.41150117582164E-5
116 19 7.145099732471724E-5
116 20 7.953793557242816E-5
116 21 8.844184310713185E-5
116 22 9.8233293538506E-5
116 23 1.0898759679241744E-4
116 24 1.2078497065307907E-4
116 25 1.3371070247100844E-4
116 26 1.478552988261544E-4
116 27 1.6331462079362345E-4
116 28 1.801900023241393E-4
116 29 1.9858834912484408E-4
116 30 2.186222153105597E-4
116 31 2.404098549935424E-4
116 32 2.64075245893548E-4
116 33 2.8974808198221224E-4
116 34 3.175637321289198E-4
116 35 3.4766316169206583E-4
116 36 3.801928140025063E-4
116 37 4.153044487175457E-4
116 38 4.531549340864822E-4
116 39 4.939059902648149E-4
116 40 5.377238809458774E-4
116 41 5.847790507477894E-4
116 42 6.352457060019391E-4
116 43 6.893013368380249E-4
116 44 7.471261787510978E-4
116 45 8.089026121686099E-4
116 46 8.748144989104668E-4
116 47 9.450464548521614E-4
116 48 1.0197830585595082E-3
116 49 1.0992079961619481E-3
116 50 1.183503143267951E-3
116 51 1.2728475852982531E-3
116 52 1.367416578217387E-3
116 53 1.4673804522774983E-3
116 54 1.5729034620464647E-3
116 55 1.6841425866698377E-3
116 56 1.8012462850076334E-3
116 57 1.9243532109863046E-3
116 58 2.0535908952067335E-3
116 59 2.1890743995435897E-3
116 60 2.330904952152349E-3
116 61 2.4791685709596527E-3
116 62 2.633934684342309E-3
116 63 2.795254758291549E-3
116 64 2.9631609399036283E-3
116 65 3.1376647275268414E-3
116 66 3.3187556783199905E-3
116 67 3.5064001643299895E-3
116 68 3.7005401884686075E-3
116 69 3.901092271952699E-3
116 70 4.107946424861764E-3
116 71 4.32096521145483E-3
116 72 4.53998292177005E-3
116 73 4.76480486080035E-3
116 74 4.995206766193312E-3
116 75 5.230934364960887E-3
116 76 5.471703079103E-3
116 77 5.717197889348822E-3
116 78 5.967073365401693E-3
116 79 6.220953870141162E-3
116 80 6.478433944192542E-3
116 81 6.739078876126403E-3
116 82 7.002425462304573E-3
116 83 7.267982959054018E-3
116 84 7.535234228435287E-3
116 85 7.803637077389106E-3
116 86 8.072625788505754E-3
116 87 8.341612839080366E-3
116 88 8.609990803507927E-3
116 89 8.87713443244969E-3
116 90 9.142402900584164E-3
116 91 9.405142213157209E-3
116 92 9.664687759983982E-3
116 93 9.920367004047512E-3
116 94 1.0171502290401539E-2
116 95 1.0417413759735424E-2
116 96 1.0657422349712599E-2
116 97 1.0890852866066733E-2
116 98 1.1117037104445721E-2
116 99 1.1335317003146307E-2
116 100 1.1545047806193727E-2
116 101 1.174560121570136E-2
116 102 1.1936368512104304E-2
116 103 1.211676362070477E-2
116 104 1.2286226103001317E-2
116 105 1.2444224051501605E-2
116 106 1.2590256867140038E-2
116 107 1.2723857899036553E-2
116 108 1.2844596927137332E-2
116 109 1.2952082469266922E-2
116 110 1.3045963895286368E-2
116 111 1.3125933332383884E-2
116 112 1.3191727347011566E-2
116 113 1.3243128390610169E-2
116 114 1.3279965998018756E-2
116 115 1.33021177293305E-2
116 116 1.330950984791183E-2
116 117 1.33021177293305E-2
116 118 1.3279965998018756E-2
116 119 1.3243128390610169E-2
116 120 1.3191727347011566E-2
116 121 1.3125933332383884E-2
116 122 1.3045963895286368E-2
116 123 1.2952082469266922E-2
116 124 1.2844596927137332E-2
116 125 1.2723857899036553E-2
116 126 1.2590256867140038E-2
116 127 1.2444224051501605E-2
116 128 1.2286226103001317E-2
116 129 1.211676362070477E-2
116 130 1.1936368512104304E-2
116 131 1.174560121570136E-2
116 132 1.1545047806193727E-2
116 133 1.1335317003146307E-2
116 134 1.1117037104445721E-2
116 135 1.0890852866066733E-2
116 136 1.0657422349712599E-2
116 137 1.0417413759735424E-2
116 138 1.0171502290401539E-2
116 139 9.920367004047512E-3
116 140 9.664687759983982E-3
116 141 9.405142213157209E-3
116 142 9.142402900584164E-3
116 143 8.87713443244969E-3
116 144 8.609990803507927E-3
116 145 8.341612839080366E-3
116 146 8.072625788505754E-3
116 147 7.803637077389106E-3
116 148 7.535234228435287E-3
116 149 7.267982959054018E-3
116 150 7.002425462304573E-3
116 151 6.739078876126403E-3
116 152 6.478433944192542E-3
116 153 6.220953870141162E-3
116 154 5.967073365401693E-3
116 155 5.717197889348822E-3
116 156 5.471703079103E-3
116 157 5.230934364960887E-3
116 158 4.995206766193312E-3
116 159 4.76480486080035E-3
116 160 4.53998292177005E-3
116 161 4.32096521145483E-3
116 162 4.107946424861764E-3
116 163 3.901092271952699E-3
116 164 3.7005401884686075E-3
116 165 3.5064001643299895E-3
116 166 3.3187556783199905E-3
116 167 3.1376647275268414E-3
116 168 2.9631609399036283E-3
116 169 2.795254758291549E-3
116 170 2.633934684342309E-3
116 171 2.4791685709596527E-3
116 172 2.330904952152349E-3
116 173 2.1890743995435897E-3
116 174 2.0535908952067335E-3
116 175 1.9243532109863046E-3
116 176 1.8012462850076334E-3
116 177 1.6841425866698377E-3
116 178 1.5729034620464647E-3
116 179 1.4673804522774983E-3
116 180 1.367416578217387E-3
116 181 1.2728475852982531E-3
116 182 1.183503143267951E-3
116 183 1.0992079961619481E-3
116 184 1.0197830585595082E-3
116 185 9.964999570197155E-4
116 186 9.322828330137669E-4
116 187 8.730176239268262E-4
116 188 8.18577176075815E-4
116 189 7.688392724104531E-4
116 190 7.236875491090709E-4
116 191 6.830123442862954E-4
116 192 6.467114777382948E-4
116 193 6.14690960917894E-4
116 194 5.868656365574906E-4
116 195 5.631597475437002E-4
116 196 5.435074347961298E-4
116 197 5.278531640162051E-4
116 198 5.161520812537639E-4
116 199 5.08370297292772E-4
116 200 5.044851008870904E-4
117 18 5.746833410330014E-5
117 19 6.41150117582164E-5
117 20 7.145099732471724E-5
117 21 7.953793557242816E-5
117 22 8.844184310713185E-5
117 23 9.8233293538506E-5
117 24 1.0898759679241744E-4
117 25 1.2078497065307907E-4
117 26 1.3371070247100844E-4
117 27 1.478552988261544E-4
117 28 1.6331462079362345E-4
117 29 1.801900023241393E-4
117 30 1.9858834912484408E-4
117 31 2.186222153105597E-4
117 32 2.404098549935424E-4
117 33 2.64075245893548E-4
117 34 2.8974808198221224E-4
117 35 3.175637321289198E-4
117 36 3.4766316169206583E-4
117 37 3.801928140025063E-4
117 38 4.153044487175457E-4
117 39 4.531549340864822E-4
117 40 4.939059902648149E-4
117 41 5.377238809458774E-4
117 42 5.847790507477894E-4
117 43 6.352457060019391E-4
117 44 6.893013368380249E-4
117 45 7.471261787510978E-4
117 46 8.089026121686099E-4
117 47 8.748144989104668E-4
117 48 9.450464548521614E-4
117 49 1.0197830585595082E-3
117 50 1.0992079961619481E-3
117 51 1.183503143267951E-3
117 52 1.2728475852982531E-3
117 53 1.367416578217387E-3
117 54 1.4673804522774983E-3
117 55 1.5729034620464647E-3
117 56 1.6841425866698377E-3
117 57 1.8012462850076334E-3
117 58 1.9243532109863046E-3
117 59 2.0535908952067335E-3
117 60 2.1890743995435897E-3
117 61 2.330904952152349E-3
117 62 2.4791685709596527E-3
117 63 2.633934684342309E-3
117 64 2.795254758291549E-3
117 65 2.9631609399036283E-3
117 66 3.1376647275268414E-3
117 67 3.3187556783199905E-3
117 68 3.5064001643299895E-3
117 69 3.7005401884686075E-3
117 70 3.901092271952699E-3
117 71 4.107946424861764E-3
117 72 4.32096521145483E-3
117 73 4.53998292177005E-3
117 74 4.76480486080035E-3
117 75 4.995206766193312E-3
117 76 5.230934364960887E-3
117 77 5.471703079103E-3
117 78 5.717197889348822E-3
117 79 5.967073365401693E-3
117 80 6.220953870141162E-3
117 81 6.478433944192542E-3
117 82 6.739078876126403E-3
117 83 7.002425462304573E-3
117 84 7.267982959054018E-3
117 85 7.535234228435287E-3
117 86 7.803637077389106E-3
117 87 8.072625788505754E-3
117 88 8.341612839080366E-3
117 89 8.609990803507927E-3
117 90 8.87713443244969E-3
117 91 9.142402900584164E-3
117 92 9.405142213157209E-3
117 93 9.664687759983982E-3
117 94 9.920367004047512E-3
117 95 1.0171502290401539E-2
117 96 1.0417413759735424E-2
117 97 1.0657422349712599E-2
117 98 1.0890852866066733E-2
117 99 1.1117037104445721E-2
117 100 1.1335317003146307E-2
117 101 1.1545047806193727E-2
117 102 1.174560121570136E-2
117 103 1.1936368512104304E-2
117 104 1.211676362070477E-2
117 105 1.2286226103001317E-2
117 106 1.2444224051501605E-2
117 107 1.2590256867140038E-2
117 108 1.2723857899036553E-2
117 109 1.2844596927137332E-2
117 110 1.2952082469266922E-2
117 111 1.3045963895286368E-2
117 112 1.3125933332383884E-2
117 113 1.3191727347011566E-2
117 114 1.3243128390610169E-2
117 115 1.3279965998018756E-2
117 116 1.33021177293305E-2
117 117 1.330950984791183E-2
117 118 1.33021177293305E-2
117 119 1.3279965998018756E-2
117 120 1.3243128390610169E-2
117 121 1.3191727347011566E-2
117 122 1.3125933332383884E-2
117 123 1.3045963895286368E-2
117 124 1.2952082469266922E-2
117 125 1.2844596927137332E-2
117 126 1.2723857899036553E-2
117 127 1.2590256867140038E-2
117 128 1.2444224051501605E-2
117 129 1.2286226103001317E-2
117 130 1.211676362070477E-2
117 131 1.1936368512104304E-2
117 132 1.174560121570136E-2
117 133 1.1545047806193727E-2
117 134 1.1335317003146307E-2
117 135 1.1117037104445721E-2
117 136 1.0890852866066733E-2
117 137 1.0657422349712599E-2
117 138 1.0417413759735424E-2
117 139 1.0171502290401539E-2
117 140 9.920367004047512E-3
117 141 9.664687759983982E-3
117 142 9.405142213157209E-3
117 143 9.142402900584164E-3
117 144 8.87713443244969E-3
117 145 8.609990803507927E-3
117 146 8.341612839080366E-3
117 147 8.072625788505754E-3
117 148 7.803637077389106E-3
117 149 7.535234228435287E-3
117 150 7.267982959054018E-3
117 151 7.002425462304573E-3
117 152 6.739078876126403E-3
117 153 6.478433944192542E-3
117 154 6.220953870141162E-3
117 155 5.967073365401693E-3
117 156 5.717197889348822E-3
117 157 5.471703079103E-3
117 158 5.230934364960887E-3
117 159 4.995206766193312E-3
117 160 4.76480486080035E-3
117 161 4.53998292177005E-3
117 162 4.32096521145483E-3
117 163 4.107946424861764E-3
117 164 3.901092271952699E-3
117 165 3.7005401884686075E-3
117 166 3.5064001643299895E-3
117 167 3.3187556783199905E-3
117 168 3.1376647275268414E-3
117 169 2.9631609399036283E-3
117 170 2.795254758291549E-3
117 171 2.633934684342309E-3
117 172 2.4791685709596527E-3
117 173 2.330904952152349E-3
117 174 2.1890743995435897E-3
117 175 2.0535908952067335E-3
117 176 1.9243532109863046E-3
117 177 1.8012462850076334E-3
117 178 1.6841425866698377E-3
117 179 1.5729034620464647E-3
117 180 1.4673804522774983E-3
117 181 1.367416578217387E-3
117 182 1.2728475852982531E-3
117 183 1.183503143267951E-3
117 184 1.150661498329502E-3
117 185 1.0772513926628083E-3
117 186 1.009161466610378E-3
117 187 9.46265496235184E-4
117 188 8.884405477410381E-4
117 189 8.355680218582296E-4
117 190 7.875346303765309E-4
117 191 7.442333027943565E-4
117 192 7.055640214008685E-4
117 193 6.714345834168858E-4
117 194 6.417612890909693E-4
117 195 6.164695548801056E-4
117 196 5.95494451041685E-4
117 197 5.787811631273504E-4
117 198 5.662853770026255E-4
117 199 5.579735871224622E-4
117 200 5.538233278757602E-4
118 19 5.746833410330014E-5
118 20 6.41150117582164E-5
118 21 7.145099732471724E-5
118 22 7.953793557242816E-5
118 23 8.844184310713185E-5
118 24 9.8233293538506E-5
118 25 1.0898759679241744E-4
118 26 1.2078497065307907E-4
118 27 1.3371070247100844E-4
118 28 1.478552988261544E-4
118 29 1.6331462079362345E-4
118 30 1.801900023241393E-4
118 31 1.9858834912484408E-4
118 32 2.186222153105597E-4
118 33 2.404098549935424E-4
118 34 2.64075245893548E-4
118 35 2.8974808198221224E-4
118 36 3.175637321289198E-4
118 37 3.4766316169206583E-4
118 38 3.801928140025063E-4
118 39 4.153044487175457E-4
118 40 4.531549340864822E-4
118 41 4.939059902648149E-4
118 42 5.377238809458774E-4
118 43 5.847790507477894E-4
118 44 6.352457060019391E-4
118 45 6.893013368380249E-4
118 46 7.471261787510978E-4
118 47 8.089026121686099E-4
118 48 8.748144989104668E-4
118 49 9.450464548521614E-4
118 50 1.0197830585595082E-3
118 51 1.0992079961619481E-3
118 52 1.183503143267951E-3
118 53 1.2728475852982531E-3
118 54 1.367416578217387E-3
118 55 1.4673804522774983E-3
118 56 1.5729034620464647E-3
118 57 1.6841425866698377E-3
118 58 1.8012462850076334E-3
118 59 1.9243532109863046E-3
118 60 2.0535908952067335E-3
118 61 2.1890743995435897E-3
118 62 2.330904952152349E-3
118 63 2.4791685709596527E-3
118 64 2.633934684342309E-3
118 65 2.795254758291549E-3
118 66 2.9631609399036283E-3
118 67 3.1376647275268414E-3
118 68 3.3187556783199905E-3
118 69 3.5064001643299895E-3
118 70 3.7005401884686075E-3
118 71 3.901092271952699E-3
118 72 4.107946424861764E-3
118 73 4.32096521145483E-3
118 74 4.53998292177005E-3
118 75 4.76480486080035E-3
118 76 4.995206766193312E-3
118 77 5.230934364960887E-3
118 78 5.471703079103E-3
118 79 5.717197889348822E-3
118 80 5.967073365401693E-3
118 81 6.220953870141162E-3
118 82 6.478433944192542E-3
118 83 6.739078876126403E-3
118 84 7.002425462304573E-3
118 85 7.267982959054018E-3
118 86 7.535234228435287E-3
118 87 7.803637077389106E-3
118 88 8.072625788505754E-3
118 89 8.341612839080366E-3
118 90 8.609990803507927E-3
118 91 8.87713443244969E-3
118 92 9.142402900584164E-3
118 93 9.405142213157209E-3
118 94 9.664687759983982E-3
118 95 9.920367004047512E-3
118 96 1.0171502290401539E-2
118 97 1.0417413759735424E-2
118 98 1.0657422349712599E-2
118 99 1.0890852866066733E-2
118 100 1.1117037104445721E-2
118 101 1.1335317003146307E-2
118 102 1.1545047806193727E-2
118 103 1.174560121570136E-2
118 104 1.1936368512104304E-2
118 105 1.211676362070477E-2
118 106 1.2286226103001317E-2
118 107 1.2444224051501605E-2
118 108 1.2590256867140038E-2
118 109 1.2723857899036553E-2
118 110 1.2844596927137332E-2
118 111 1.2952082469266922E-2
118 112 1.3045963895286368E-2
118 113 1.3125933332383884E-2
118 114 1.3191727347011566E-2
118 115 1.3243128390610169E-2
118 116 1.3279965998018756E-2
118 117 1.33021177293305E-2
118 118 1.330950984791183E-2
118 119 1.33021177293305E-2
118 120 1.3279965998018756E-2
118 121 1.3243128390610169E-2
118 122 1.3191727347011566E-2
118 123 1.3125933332383884E-2
118 124 1.3045963895286368E-2
118 125 1.2952082469266922E-2
118 126 1.2844596927137332E-2
118 127 1.2723857899036553E-2
118 128 1.2590256867140038E-2
118 129 1.2444224051501605E-2
118 130 1.2286226103001317E-2
118 131 1.211676362070477E-2
118 132 1.1936368512104304E-2
118 133 1.174560121570136E-2
118 134 1.1545047806193727E-2
118 135 1.1335317003146307E-2
118 136 1.1117037104445721E-2
118 137 1.0890852866066733E-2
118 138 1.0657422349712599E-2
118 139 1.0417413759735424E-2
118 140 1.0171502290401539E-2
118 141 9.920367004047512E-3
118 142 9.664687759983982E-3
118 143 9.405142213157209E-3
118 144 9.142402900584164E-3
118 145 8.87713443244969E-3
118 146 8.609990803507927E-3
118 147 8.341612839080366E-3
118 148 8.072625788505754E-3
118 149 7.803637077389106E-3
118 150 7.535234228435287E-3
118 151 7.267982959054018E-3
118 152 7.002425462304573E-3
118 153 6.739078876126403E-3
118 154 6.478433944192542E-3
118 155 6.220953870141162E-3
118 156 5.967073365401693E-3
118 157 5.717197889348822E-3
118 158 5.471703079103E-3
118 159 5.230934364960887E-3
118 160 4.995206766193312E-3
118 161 4.76480486080035E-3
118 162 4.53998292177005E-3
118 163 4.32096521145483E-3
118 164 4.107946424861764E-3
118 165 3.901092271952699E-3
118 166 3.7005401884686075E-3
118 167 3.5064001643299895E-3
118 168 3.3187556783199905E-3
118 169 3.1376647275268414E-3
118 170 2.9631609399036283E-3
118 171 2.795254758291549E-3
118 172 2.633934684342309E-3
118 173 2.4791685709596527E-3
118 174 2.330904952152349E-3
118 175 2.1890743995435897E-3
118 176 2.0535908952067335E-3
118 177 1.9243532109863046E-3
118 178 1.8012462850076334E-3
118 179 1.6841425866698377E-3
118 180 1.5729034620464647E-3
118 181 1.4673804522774983E-3
118 182 1.367416578217387E-3
118 183 1.3243010874658071E-3
118 184 1.240971477371251E-3
118 185 1.1633230079201645E-3
118 186 1.0912340558842254E-3
118 187 1.0245843904245896E-3
118 188 9.632563420175986E-4
118 189 9.071359057071159E-4
118 190 8.561137755435152E-4
118 191 8.10086307491104E-4
118 192 7.689564084729475E-4
118 193 7.326343495739438E-4
118 194 7.010385017395008E-4
118 195 6.740959925889542E-4
118 196 6.517432832113263E-4
118 197 6.339266640281054E-4
118 198 6.206026689960487E-4
118 199 6.117384075856138E-4
118 200 6.07311814111132E-4
119 20 5.746833410330014E-5
119 21 6.41150117582164E-5
119 22 7.145099732471724E-5
119 23 7.953793557242816E-5
119 24 8.844184310713185E-5
119 25 9.8233293538506E-5
119 26 1.0898759679241744E-4
119 27 1.2078497065307907E-4
119 28 1.3371070247100844E-4
119 29 1.478552988261544E-4
119 30 1.6331462079362345E-4
119 31 1.801900023241393E-4
119 32 1.9858834912484408E-4
119 33 2.186222153105597E-4
119 34 2.404098549935424E-4
119 35 2.64075245893548E-4
119 36 2.8974808198221224E-4
119 37 3.175637321289198E-4
119 38 3.4766316169206583E-4
119 39 3.801928140025063E-4
119 40 4.153044487175457E-4
119 41 4.531549340864822E-4
119 42 4.939059902648149E-4
119 43 5.377238809458774E-4
119 44 5.847790507477894E-4
119 45 6.352457060019391E-4
119 46 6.893013368380249E-4
119 47 7.471261787510978E-4
119 48 8.089026121686099E-4
119 49 8.748144989104668E-4
119 50 9.450464548521614E-4
119 51 1.0197830585595082E-3
119 52 1.0992079961619481E-3
119 53 1.183503143267951E-3
119 54 1.2728475852982531E-3
119 55 1.367416578217387E-3
119 56 1.4673804522774983E-3
119 57 1.5729034620464647E-3
119 58 1.6841425866698377E-3
119 59 1.8012462850076334E-3
119 60 1.9243532109863046E-3
119 61 2.0535908952067335E-3
119 62 2.1890743995435897E-3
119 63 2.330904952152349E-3
119 64 2.4791685709596527E-3
119 65 2.633934684342309E-3
119 66 2.795254758291549E-3
119 67 2.9631609399036283E-3
119 68 3.1376647275268414E-3
119 69 3.3187556783199905E-3
119 70 3.5064001643299895E-3
119 71 3.7005401884686075E-3
119 72 3.901092271952699E-3
119 73 4.107946424861764E-3
119 74 4.32096521145483E-3
119 75 4.53998292177005E-3
119 76 4.76480486080035E-3
119 77 4.995206766193312E-3
119 78 5.230934364960887E-3
119 79 5.471703079103E-3
119 80 5.717197889348822E-3
119 81 5.967073365401693E-3
119 82 6.220953870141162E-3
119 83 6.478433944192542E-3
119 84 6.739078876126403E-3
119 85 7.002425462304573E-3
119 86 7.267982959054018E-3
119 87 7.535234228435287E-3
119 88 7.803637077389106E-3
119 89 8.072625788505754E-3
119 90 8.341612839080366E-3
119 91 8.609990803507927E-3
119 92 8.87713443244969E-3
119 93 9.142402900584164E-3
119 94 9.405142213157209E-3
119 95 9.664687759983982E-3
119 96 9.920367004047512E-3
119 97 1.0171502290401539E-2
119 98 1.0417413759735424E-2
119 99 1.0657422349712599E-2
119 100 1.0890852866066733E-2
119 101 1.1117037104445721E-2
119 102 1.1335317003146307E-2
119 103 1.1545047806193727E-2
119 104 1.174560121570136E-2
119 105 1.1936368512104304E-2
119 106 1.211676362070477E-2
119 107 1.2286226103001317E-2
119 108 1.2444224051501605E-2
119 109 1.2590256867140038E-2
119 110 1.2723857899036553E-2
119 111 1.2844596927137332E-2
119 112 1.2952082469266922E-2
119 113 1.3045963895286368E-2
119 114 1.3125933332383884E-2
119 115 1.3191727347011566E-2
119 116 1.3243128390610169E-2
119 117 1.3279965998018756E-2
119 118 1.33021177293305E-2
119 119 1.330950984791183E-2
119 120 1.33021177293305E-2
119 121 1.3279965998018756E-2
119 122 1.3243128390610169E-2
119 123 1.3191727347011566E-2
119 124 1.3125933332383884E-2
119 125 1.3045963895286368E-2
119 126 1.2952082469266922E-2
119 127 1.2844596927137332E-2
119 128 1.2723857899036553E-2
119 129 1.2590256867140038E-2
119 130 1.2444224051501605E-2
119 131 1.2286226103001317E-2
119 132 1.211676362070477E-2
119 133 1.1936368512104304E-2
119 134 1.174560121570136E-2
119 135 1.1545047806193727E-2
119 136 1.1335317003146307E-2
119 137 1.1117037104445721E-2
119 138 1.0890852866066733E-2
119 139 1.0657422349712599E-2
119 140 1.0417413759735424E-2
119 141 1.0171502290401539E-2
119 142 9.920367004047512E-3
119 143 9.664687759983982E-3
119 144 9.405142213157209E-3
119 145 9.142402900584164E-3
119 146 8.87713443244969E-3
119 147 8.609990803507927E-3
119 148 8.341612839080366E-3
119 149 8.072625788505754E-3
119 150 7.803637077389106E-3
119 151 7.535234228435287E-3
119 152 7.267982959054018E-3
119 153 7.002425462304573E-3
119 154 6.739078876126403E-3
119 155 6.478433944192542E-3
119 156 6.220953870141162E-3
119 157 5.967073365401693E-3
119 158 5.717197889348822E-3
119 159 5.471703079103E-3
119 160 5.230934364960887E-3
119 161 4.995206766193312E-3
119 162 4.76480486080035E-3
119 163 4.53998292177005E-3
119 164 4.32096521145483E-3
119 165 4.107946424861764E-3
119 166 3.901092271952699E-3
119 167 3.7005401884686075E-3
119 168 3.5064001643299895E-3
119 169 3.3187556783199905E-3
119 170 3.1376647275268414E-3
119 171 2.9631609399036283E-3
119 172 2.795254758291549E-3
119 173 2.633934684342309E-3
119 174 2.4791685709596527E-3
119 175 2.330904952152349E-3
119 176 2.1890743995435897E-3
119 177 2.0535908952067335E-3
119 178 1.9243532109863046E-3
119 179 1.8012462850076334E-3
119 180 1.6841425866698377E-3
119 181 1.5729034620464647E-3
119 182 1.5188339544450523E-3
119 183 1.424884912320687E-3
119 184 1.3369625970564695E-3
119 185 1.2549541405926681E-3
119 186 1.1787459317343762E-3
119 187 1.10822490166664E-3
119 188 1.0432797483906674E-3
119 189 9.838020957028842E-4
119 190 9.296875828216889E-4
119 191 8.808368812221062E-4
119 192 8.371566356641793E-4
119 193 7.985603267955625E-4
119 194 7.649690530719287E-4
119 195 7.363122300707214E-4
119 196 7.125282055753746E-4
119 197 6.935647890800247E-4
119 198 6.793796946110937E-4
119 199 6.699408959847185E-4
119 200 6.652268938209856E-4
120 21 5.746833410330014E-5
120 22 6.41150117582164E-5
120 23 7.145099732471724E-5
120 24 7.953793557242816E-5
120 25 8.844184310713185E-5
120 26 9.8233293538506E-5
120 27 1.0898759679241744E-4
120 28 1.2078497065307907E-4
120 29 1.3371070247100844E-4
120 30 1.478552988261544E-4
120 31 1.6331462079362345E-4
120 32 1.801900023241393E-4
120 33 1.9858834912484408E-4
120 34 2.186222153105597E-4
120 35 2.404098549935424E-4
120 36 2.64075245893548E-4
120 37 2.8974808198221224E-4
120 38 3.175637321289198E-4
120 39 3.4766316169206583E-4
120 40 3.801928140025063E-4
120 41 4.153044487175457E-4
120 42 4.531549340864822E-4
120 43 4.939059902648149E-4
120 44 5.377238809458774E-4
120 45 5.847790507477894E-4
120 46 6.352457060019391E-4
120 47 6.893013368380249E-4
120 48 7.471261787510978E-4
120 49 8.089026121686099E-4
120 50 8.748144989104668E-4
120 51 9.450464548521614E-4
120 52 1.0197830585595082E-3
120 53 1.0992079961619481E-3
120 54 1.183503143267951E-3
120 55 1.2728475852982531E-3
120 56 1.367416578217387E-3
120 57 1.4673804522774983E-3
120 58 1.5729034620464647E-3
120 59 1.6841425866698377E-3
120 60 1.8012462850076334E-3
120 61 1.9243532109863046E-3
120 62 2.0535908952067335E-3
120 63 2.1890743995435897E-3
120 64 2.330904952152349E-3
120 65 2.4791685709596527E-3
120 66 2.633934684342309E-3
120 67 2.795254758291549E-3
120 68 2.9631609399036283E-3
120 69 3.1376647275268414E-3
120 70 3.3187556783199905E-3
120 71 3.5064001643299895E-3
120 72 3.7005401884686075E-3
120 73 3.901092271952699E-3
120 74 4.107946424861764E-3
120 75 4.32096521145483E-3
120 76 4.53998292177005E-3
120 77 4.76480486080035E-3
120 78 4.995206766193312E-3
120 79 5.230934364960887E-3
120 80 5.471703079103E-3
120 81 5.717197889348822E-3
120 82 5.967073365401693E-3
120 83 6.220953870141162E-3
120 84 6.478433944192542E-3
120 85 6.739078876126403E-3
120 86 7.002425462304573E-3
120 87 7.267982959054018E-3
120 88 7.535234228435287E-3
120 89 7.803637077389106E-3
120 90 8.072625788505754E-3
120 91 8.341612839080366E-3
120 92 8.609990803507927E-3
120 93 8.87713443244969E-3
120 94 9.142402900584164E-3
120 95 9.405142213157209E-3
120 96 9.664687759983982E-3
120 97 9.920367004047512E-3
120 98 1.0171502290401539E-2
120 99 1.0417413759735424E-2
120 100 1.0657422349712599E-2
120 101 1.0890852866066733E-2
120 102 1.1117037104445721E-2
120 103 1.1335317003146307E-2
120 104 1.1545047806193727E-2
120 105 1.174560121570136E-2
120 106 1.1936368512104304E-2
120 107 1.211676362070477E-2
120 108 1.2286226103001317E-2
120 109 1.2444224051501605E-2
120 110 1.2590256867140038E-2
120 111 1.2723857899036553E-2
120 112 1.2844596927137332E-2
120 113 1.2952082469266922E-2
120 114 1.3045963895286368E-2
120 115 1.3125933332383884E-2
120 116 1.3191727347011566E-2
120 117 1.3243128390610169E-2
120 118 1.3279965998018756E-2
120 119 1.33021177293305E-2
120 120 1.330950984791183E-2
120 121 1.33021177293305E-2
120 122 1.3279965998018756E-2
120 123 1.3243128390610169E-2
120 124 1.3191727347011566E-2
120 125 1.3125933332383884E-2
120 126 1.3045963895286368E-2
120 127 1.2952082469266922E-2
120 128 1.2844596927137332E-2
120 129 1.2723857899036553E-2
120 130 1.2590256867140038E-2
120 131 1.2444224051501605E-2
120 132 1.2286226103001317E-2
120 133 1.211676362070477E-2
120 134 1.1936368512104304E-2
120 135 1.174560121570136E-2
120 136 1.1545047806193727E-2
120 137 1.1335317003146307E-2
120 138 1.1117037104445721E-2
120 139 1.0890852866066733E-2
120 140 1.0657422349712599E-2
120 141 1.0417413759735424E-2
120 142 1.0171502290401539E-2
120 143 9.920367004047512E-3
120 144 9.664687759983982E-3
120 145 9.405142213157209E-3
120 146 9.142402900584164E-3
120 147 8.87713443244969E-3
120 148 8.609990803507927E-3
120 149 8.341612839080366E-3
120 150 8.072625788505754E-3
120 151 7.803637077389106E-3
120 152 7.535234228435287E-3
120 153 7.267982959054018E-3
120 154 7.002425462304573E-3
120 155 6.739078876126403E-3
120 156 6.478433944192542E-3
120 157 6.220953870141162E-3
120 158 5.967073365401693E-3
120 159 5.717197889348822E-3
120 160 5.471703079103E-3
120 161 5.230934364960887E-3
120 162 4.995206766193312E-3
120 163 4.76480486080035E-3
120 164 4.53998292177005E-3
120 165 4.32096521145483E-3
120 166 4.107946424861764E-3
120 167 3.901092271952699E-3
120 168 3.7005401884686075E-3
120 169 3.5064001643299895E-3
120 170 3.3187556783199905E-3
120 171 3.1376647275268414E-3
120 172 2.9631609399036283E-3
120 173 2.795254758291549E-3
120 174 2.633934684342309E-3
120 175 2.4791685709596527E-3
120 176 2.330904952152349E-3
120 177 2.1890743995435897E-3
120 178 2.0535908952067335E-3
120 179 1.9243532109863046E-3
120 180 1.8012462850076334E-3
120 181 1.7355960888373917E-3
120 182 1.6303717961497649E-3
120 183 1.5314954640357147E-3
120 184 1.4388675755421041E-3
120 185 1.3523855208706812E-3
120 186 1.2719449863750829E-3
120 187 1.1974412897004542E-3
120 188 1.1287706553519256E-3
120 189 1.0658314255052406E-3
120 190 1.0085252013814752E-3
120 191 9.567579109947642E-4
120 192 9.104407995447212E-4
120 193 8.694913391621643E-4
120 194 8.338340551267832E-4
120 195 8.034012660583491E-4
120 196 7.781337359394197E-4
120 197 7.579812361583628E-4
120 198 7.429030160686944E-4
120 199 7.328681808464655E-4
120 200 7.278559756945721E-4
121 22 5.746833410330014E-5
121 23 6.41150117582164E-5
121 24 7.145099732471724E-5
121 25 7.953793557242816E-5
121 26 8.844184310713185E-5
121 27 9.8233293538506E-5
121 28 1.0898759679241744E-4
121 29 1.2078497065307907E-4
121 30 1.3371070247100844E-4
121 31 1.478552988261544E-4
121 32 1.6331462079362345E-4
121 33 1.801900023241393E-4
121 34 1.9858834912484408E-4
121 35 2.186222153105597E-4
121 36 2.404098549935424E-4
121 37 2.64075245893548E-4
121 38 2.8974808198221224E-4
121 39 3.175637321289198E-4
121 40 3.4766316169206583E-4
121 41 3.801928140025063E-4
121 42 4.153044487175457E-4
121 43 4.531549340864822E-4
121 44 4.939059902648149E-4
121 45 5.377238809458774E-4
121 46 5.847790507477894E-4
121 47 6.352457060019391E-4
121 48 6.893013368380249E-4
121 49 7.471261787510978E-4
121 50 8.089026121686099E-4
121 51 8.748144989104668E-4
121 52 9.450464548521614E-4
121 53 1.0197830585595082E-3
121 54 1.0992079961619481E-3
121 55 1.183503143267951E-3
121 56 1.2728475852982531E-3
121 57 1.367416578217387E-3
121 58 1.4673804522774983E-3
121 59 1.5729034620464647E-3
121 60 1.6841425866698377E-3
121 61 1.8012462850076334E-3
121 62 1.9243532109863046E-3
121 63 2.0535908952067335E-3
121 64 2.1890743995435897E-3
121 65 2.330904952152349E-3
121 66 2.4791685709596527E-3
121 67 2.633934684342309E-3
121 68 2.795254758291549E-3
121 69 2.9631609399036283E-3
121 70 3.1376647275268414E-3
121 71 3.3187556783199905E-3
121 72 3.5064001643299895E-3
121 73 3.7005401884686075E-3
121 74 3.901092271952699E-3
121 75 4.107946424861764E-3
121 76 4.32096521145483E-3
121 77 4.53998292177005E-3
121 78 4.76480486080035E-3
121 79 4.995206766193312E-3
121 80 5.230934364960887E-3
121 81 5.471703079103E-3
121 82 5.717197889348822E-3
121 83 5.967073365401693E-3
121 84 6.220953870141162E-3
121 85 6.478433944192542E-3
121 86 6.739078876126403E-3
121 87 7.002425462304573E-3
121 88 7.267982959054018E-3
121 89 7.535234228435287E-3
121 90 7.803637077389106E-3
121 91 8.072625788505754E-3
121 92 8.341612839080366E-3
121 93 8.609990803507927E-3
121 94 8.87713443244969E-3
121 95 9.142402900584164E-3
121 96 9.405142213157209E-3
121 97 9.664687759983982E-3
121 98 9.920367004047512E-3
121 99 1.0171502290401539E-2
121 100 1.0417413759735424E-2
121 101 1.0657422349712599E-2
121 102 1.0890852866066733E-2
121 103 1.1117037104445721E-2
121 104 1.1335317003146307E-2
121 105 1.1545047806193727E-2
121 106 1.174560121570136E-2
121 107 1.1936368512104304E-2
121 108 1.211676362070477E-2
121 109 1.2286226103001317E-2
121 110 1.2444224051501605E-2
121 111 1.2590256867140038E-2
121 112 1.2723857899036553E-2
121 113 1.2844596927137332E-2
121 114 1.2952082469266922E-2
121 115 1.3045963895286368E-2
121 116 1.3125933332383884E-2
121 117 1.3191727347011566E-2
121 118 1.3243128390610169E-2
121 119 1.3279965998018756E-2
121 120 1.33021177293305E-2
121 121 1.330950984791183E-2
121 122 1.33021177293305E-2
121 123 1.3279965998018756E-2
121 124 1.3243128390610169E-2
121 125 1.3191727347011566E-2
121 126 1.3125933332383884E-2
121 127 1.3045963895286368E-2
121 128 1.2952082469266922E-2
121 129 1.2844596927137332E-2
121 130 1.2723857899036553E-2
121 131 1.2590256867140038E-2
121 132 1.2444224051501605E-2
121 133 1.2286226103001317E-2
121 134 1.211676362070477E-2
121 135 1.1936368512104304E-2
121 136 1.174560121570136E-2
121 137 1.1545047806193727E-2
121 138 1.1335317003146307E-2
121 139 1.1117037104445721E-2
121 140 1.0890852866066733E-2
121 141 1.0657422349712599E-2
121 142 1.0417413759735424E-2
121 143 1.0171502290401539E-2
121 144 9.920367004047512E-3
121 145 9.664687759983982E-3
121 146 9.405142213157209E-3
121 147 9.142402900584164E-3
121 148 8.87713443244969E-3
121 149 8.609990803507927E-3
121 150 8.341612839080366E-3
121 151 8.072625788505754E-3
121 152 7.803637077389106E-3
121 153 7.535234228435287E-3
121 154 7.267982959054018E-3
121 155 7.002425462304573E-3
121 156 6.739078876126403E-3
121 157 6.478433944192542E-3
121 158 6.220953870141162E-3
121 159 5.967073365401693E-3
121 160 5.717197889348822E-3
121 161 5.471703079103E-3
121 162 5.230934364960887E-3
121 163 4.995206766193312E-3
121 164 4.76480486080035E-3
121 165 4.53998292177005E-3
121 166 4.32096521145483E-3
121 167 4.107946424861764E-3
121 168 3.901092271952699E-3
121 169 3.7005401884686075E-3
121 170 3.5064001643299895E-3
121 171 3.3187556783199905E-3
121 172 3.1376647275268414E-3
121 173 2.9631609399036283E-3
121 174 2.795254758291549E-3
121 175 2.633934684342309E-3
121 176 2.4791685709596527E-3
121 177 2.330904952152349E-3
121 178 2.1890743995435897E-3
121 179 2.0535908952067335E-3
121 180 1.9758067131538585E-3
121 181 1.8587146191109336E-3
121 182 1.748257598428054E-3
121 183 1.644354459371182E-3
121 184 1.5469183878499264E-3
121 185 1.4558584213245189E-3
121 186 1.3710808788367592E-3
121 187 1.2924907400603683E-3
121 188 1.2199929668150272E-3
121 189 1.1534937610305166E-3
121 190 1.0929017536783158E-3
121 191 1.0381291197040902E-3
121 192 9.890926144927492E-4
121 193 9.457145278759418E-4
121 194 9.079235521485846E-4
121 195 8.756555609954815E-4
121 196 8.488542966413374E-4
121 197 8.274719629280897E-4
121 198 8.114697223937347E-4
121 199 8.008180957785481E-4
121 200 7.95497262720052E-4
122 23 5.746833410330014E-5
122 24 6.41150117582164E-5
122 25 7.145099732471724E-5
122 26 7.953793557242816E-5
122 27 8.844184310713185E-5
122 28 9.8233293538506E-5
122 29 1.0898759679241744E-4
122 30 1.2078497065307907E-4
122 31 1.3371070247100844E-4
122 32 1.478552988261544E-4
122 33 1.6331462079362345E-4
122 34 1.801900023241393E-4
122 35 1.9858834912484408E-4
122 36 2.186222153105597E-4
122 37 2.404098549935424E-4
122 38 2.64075245893548E-4
122 39 2.8974808198221224E-4
122 40 3.175637321289198E-4
122 41 3.4766316169206583E-4
122 42 3.801928140025063E-4
122 43 4.153044487175457E-4
122 44 4.531549340864822E-4
122 45 4.939059902648149E-4
122 46 5.377238809458774E-4
122 47 5.847790507477894E-4
122 48 6.352457060019391E-4
122 49 6.893013368380249E-4
122 50 7.471261787510978E-4
122 51 8.089026121686099E-4
122 52 8.748144989104668E-4
122 53 9.450464548521614E-4
122 54 1.0197830585595082E-3
122 55 1.0992079961619481E-3
122 56 1.183503143267951E-3
122 57 1.2728475852982531E-3
122 58 1.367416578217387E-3
122 59 1.4673804522774983E-3
122 60 1.5729034620464647E-3
122 61 1.6841425866698377E-3
122 62 1.8012462850076334E-3
122 63 1.9243532109863046E-3
122 64 2.0535908952067335E-3
122 65 2.1890743995435897E-3
122 66 2.330904952152349E-3
122 67 2.4791685709596527E-3
122 68 2.633934684342309E-3
122 69 2.795254758291549E-3
122 70 2.9631609399036283E-3
122 71 3.1376647275268414E-3
122 72 3.3187556783199905E-3
122 73 3.5064001643299895E-3
122 74 3.7005401884686075E-3
122 75 3.901092271952699E-3
122 76 4.107946424861764E-3
122 77 4.32096521145483E-3
122 78 4.53998292177005E-3
122 79 4.76480486080035E-3
122 80 4.995206766193312E-3
122 81 5.230934364960887E-3
122 82 5.471703079103E-3
122 83 5.717197889348822E-3
122 84 5.967073365401693E-3
122 85 6.220953870141162E-3
122 86 6.478433944192542E-3
122 87 6.739078876126403E-3
122 88 7.002425462304573E-3
122 89 7.267982959054018E-3
122 90 7.535234228435287E-3
122 91 7.803637077389106E-3
122 92 8.072625788505754E-3
122 93 8.341612839080366E-3
122 94 8.609990803507927E-3
122 95 8.87713443244969E-3
122 96 9.142402900584164E-3
122 97 9.405142213157209E-3
122 98 9.664687759983982E-3
122 99 9.920367004047512E-3
122 100 1.0171502290401539E-2
122 101 1.0417413759735424E-2
122 102 1.0657422349712599E-2
122 103 1.0890852866066733E-2
122 104 1.1117037104445721E-2
122 105 1.1335317003146307E-2
122 106 1.1545047806193727E-2
122 107 1.174560121570136E-2
122 108 1.1936368512104304E-2
122 109 1.211676362070477E-2
122 110 1.2286226103001317E-2
122 111 1.2444224051501605E-2
122 112 1.2590256867140038E-2
122 113 1.2723857899036553E-2
122 114 1.2844596927137332E-2
122 115 1.2952082469266922E-2
122 116 1.3045963895286368E-2
122 117 1.3125933332383884E-2
122 118 1.3191727347011566E-2
122 119 1.3243128390610169E-2
122 120 1.3279965998018756E-2
122 121 1.33021177293305E-2
122 122 1.330950984791183E-2
122 123 1.33021177293305E-2
122 124 1.3279965998018756E-2
122 125 1.3243128390610169E-2
122 126 1.3191727347011566E-2
122 127 1.3125933332383884E-2
122 128 1.3045963895286368E-2
122 129 1.2952082469266922E-2
122 130 1.2844596927137332E-2
122 131 1.2723857899036553E-2
122 132 1.2590256867140038E-2
122 133 1.2444224051501605E-2
122 134 1.2286226103001317E-2
122 135 1.211676362070477E-2
122 136 1.1936368512104304E-2
122 137 1.174560121570136E-2
122 138 1.1545047806193727E-2
122 139 1.1335317003146307E-2
122 140 1.1117037104445721E-2
122 141 1.0890852866066733E-2
122 142 1.0657422349712599E-2
122 143 1.0417413759735424E-2
122 144 1.0171502290401539E-2
122 145 9.920367004047512E-3
122 146 9.664687759983982E-3
122 147 9.405142213157209E-3
122 148 9.142402900584164E-3
122 149 8.87713443244969E-3
122 150 8.609990803507927E-3
122 151 8.341612839080366E-3
122 152 8.072625788505754E-3
122 153 7.803637077389106E-3
122 154 7.535234228435287E-3
122 155 7.267982959054018E-3
122 156 7.002425462304573E-3
122 157 6.739078876126403E-3
122 158 6.478433944192542E-3
122 159 6.220953870141162E-3
122 160 5.967073365401693E-3
122 161 5.717197889348822E-3
122 162 5.471703079103E-3
122 163 5.230934364960887E-3
122 164 4.995206766193312E-3
122 165 4.76480486080035E-3
122 166 4.53998292177005E-3
122 167 4.32096521145483E-3
122 168 4.107946424861764E-3
122 169 3.901092271952699E-3
122 170 3.7005401884686075E-3
122 171 3.5064001643299895E-3
122 172 3.3187556783199905E-3
122 173 3.1376647275268414E-3
122 174 2.9631609399036283E-3
122 175 2.795254758291549E-3
122 176 2.633934684342309E-3
122 177 2.4791685709596527E-3
122 178 2.330904952152349E-3
122 179 2.2405279017111437E-3
122 180 2.111059229310034E-3
122 181 1.988468222744521E-3
122 182 1.8726972823323506E-3
122 183 1.7636805222422658E-3
122 184 1.6613453051535967E-3
122 185 1.5656137458160044E-3
122 186 1.4764041750098043E-3
122 187 1.3936325559513322E-3
122 188 1.3172138457389594E-3
122 189 1.2470632949881026E-3
122 190 1.1830976793531316E-3
122 191 1.1252364571763007E-3
122 192 1.0734028480353108E-3
122 193 1.0275248274791695E-3
122 194 9.875360337446401E-4
122 195 9.53376582731573E-4
122 196 9.249937879841513E-4
122 197 9.023427828767092E-4
122 198 8.853870426379432E-4
122 199 8.740988042673212E-4
122 200 8.684593828040279E-4
123 24 5.746833410330014E-5
123 25 6.41150117582164E-5
123 26 7.145099732471724E-5
123 27 7.953793557242816E-5
123 28 8.844184310713185E-5
123 29 9.8233293538506E-5
123 30 1.0898759679241744E-4
123 31 1.2078497065307907E-4
123 32 1.3371070247100844E-4
123 33 1.478552988261544E-4
123 34 1.6331462079362345E-4
123 35 1.801900023241393E-4
123 36 1.9858834912484408E-4
123 37 2.186222153105597E-4
123 38 2.404098549935424E-4
123 39 2.64075245893548E-4
123 40 2.8974808198221224E-4
123 41 3.175637321289198E-4
123 42 3.4766316169206583E-4
123 43 3.801928140025063E-4
123 44 4.153044487175457E-4
123 45 4.531549340864822E-4
123 46 4.939059902648149E-4
123 47 5.377238809458774E-4
123 48 5.847790507477894E-4
123 49 6.352457060019391E-4
123 50 6.893013368380249E-4
123 51 7.471261787510978E-4
123 52 8.089026121686099E-4
123 53 8.748144989104668E-4
123 54 9.450464548521614E-4
123 55 1.0197830585595082E-3
123 56 1.0992079961619481E-3
123 57 1.183503143267951E-3
123 58 1.2728475852982531E-3
123 59 1.367416578217387E-3
123 60 1.4673804522774983E-3
123 61 1.5729034620464647E-3
123 62 1.6841425866698377E-3
123 63 1.8012462850076334E-3
123 64 1.9243532109863046E-3
123 65 2.0535908952067335E-3
123 66 2.1890743995435897E-3
123 67 2.330904952152349E-3
123 68 2.4791685709596527E-3
123 69 2.633934684342309E-3
123 70 2.795254758291549E-3
123 71 2.9631609399036283E-3
123 72 3.1376647275268414E-3
123 73 3.3187556783199905E-3
123 74 3.5064001643299895E-3
123 75 3.7005401884686075E-3
123 76 3.901092271952699E-3
123 77 4.107946424861764E-3
123 78 4.32096521145483E-3
123 79 4.53998292177005E-3
123 80 4.76480486080035E-3
123 81 4.995206766193312E-3
123 82 5.230934364960887E-3
123 83 5.471703079103E-3
123 84 5.717197889348822E-3
123 85 5.967073365401693E-3
123 86 6.220953870141162E-3
123 87 6.478433944192542E-3
123 88 6.739078876126403E-3
123 89 7.002425462304573E-3
123 90 7.267982959054018E-3
123 91 7.535234228435287E-3
123 92 7.803637077389106E-3
123 93 8.072625788505754E-3
123 94 8.341612839080366E-3
123 95 8.609990803507927E-3
123 96 8.87713443244969E-3
123 97 9.142402900584164E-3
123 98 9.405142213157209E-3
123 99 9.664687759983982E-3
123 100 9.920367004047512E-3
123 101 1.0171502290401539E-2
123 102 1.0417413759735424E-2
123 103 1.0657422349712599E-2
123 104 1.0890852866066733E-2
123 105 1.1117037104445721E-2
123 106 1.1335317003146307E-2
123 107 1.1545047806193727E-2
123 108 1.174560121570136E-2
123 109 1.1936368512104304E-2
123 110 1.211676362070477E-2
123 111 1.2286226103001317E-2
123 112 1.2444224051501605E-2
123 113 1.2590256867140038E-2
123 114 1.2723857899036553E-2
123 115 1.2844596927137332E-2
123 116 1.2952082469266922E-2
123 117 1.3045963895286368E-2
123 118 1.3125933332383884E-2
123 119 1.3191727347011566E-2
123 120 1.3243128390610169E-2
123 121 1.3279965998018756E-2
123 122 1.33021177293305E-2
123 123 1.330950984791183E-2
123 124 1.33021177293305E-2
123 125 1.3279965998018756E-2
123 126 1.3243128390610169E-2
123 127 1.3191727347011566E-2
123 128 1.3125933332383884E-2
123 129 1.3045963895286368E-2
123 130 1.2952082469266922E-2
123 131 1.2844596927137332E-2
123 132 1.2723857899036553E-2
123 133 1.2590256867140038E-2
123 134 1.2444224051501605E-2
123 135 1.2286226103001317E-2
123 136 1.211676362070477E-2
123 137 1.1936368512104304E-2
123 138 1.174560121570136E-2
123 139 1.1545047806193727E-2
123 140 1.1335317003146307E-2
123 141 1.1117037104445721E-2
123 142 1.0890852866066733E-2
123 143 1.0657422349712599E-2
123 144 1.0417413759735424E-2
123 145 1.0171502290401539E-2
123 146 9.920367004047512E-3
123 147 9.664687759983982E-3
123 148 9.405142213157209E-3
123 149 9.142402900584164E-3
123 150 8.87713443244969E-3
123 151 8.609990803507927E-3
123 152 8.341612839080366E-3
123 153 8.072625788505754E-3
123 154 7.803637077389106E-3
123 155 7.535234228435287E-3
123 156 7.267982959054018E-3
123 157 7.002425462304573E-3
123 158 6.739078876126403E-3
123 159 6.478433944192542E-3
123 160 6.220953870141162E-3
123 161 5.967073365401693E-3
123 162 5.717197889348822E-3
123 163 5.471703079103E-3
123 164 5.230934364960887E-3
123 165 4.995206766193312E-3
123 166 4.76480486080035E-3
123 167 4.53998292177005E-3
123 168 4.32096521145483E-3
123 169 4.107946424861764E-3
123 170 3.901092271952699E-3
123 171 3.7005401884686075E-3
123 172 3.5064001643299895E-3
123 173 3.3187556783199905E-3
123 174 3.1376647275268414E-3
123 175 2.9631609399036283E-3
123 176 2.795254758291549E-3
123 177 2.633934684342309E-3
123 178 2.5306220731272067E-3
123 179 2.3883732862556495E-3
123 180 2.253189411301806E-3
123 181 2.125041892531451E-3
123 182 2.003891146558733E-3
123 183 1.8896881281147654E-3
123 184 1.7823758802083438E-3
123 185 1.6818910588388821E-3
123 186 1.5881654229305774E-3
123 187 1.5011272806883954E-3
123 188 1.4207028841244076E-3
123 189 1.3468177640615744E-3
123 190 1.2793979984860875E-3
123 191 1.2183714076843522E-3
123 192 1.1636686701627212E-3
123 193 1.1152243539040091E-3
123 194 1.072977858062158E-3
123 195 1.03687426073331E-3
123 196 1.0068650689669448E-3
123 197 9.82908867694005E-4
123 198 9.649718647502957E-4
123 199 9.530283296634232E-4
123 200 9.470609243512971E-4
124 25 5.746833410330014E-5
124 26 6.41150117582164E-5
124 27 7.145099732471724E-5
124 28 7.953793557242816E-5
124 29 8.844184310713185E-5
124 30 9.8233293538506E-5
124 31 1.0898759679241744E-4
124 32 1.2078497065307907E-4
124 33 1.3371070247100844E-4
124 34 1.478552988261544E-4
124 35 1.6331462079362345E-4
124 36 1.801900023241393E-4
124 37 1.9858834912484408E-4
124 38 2.186222153105597E-4
124 39 2.404098549935424E-4
124 40 2.64075245893548E-4
124 41 2.8974808198221224E-4
124 42 3.175637321289198E-4
124 43 3.4766316169206583E-4
124 44 3.801928140025063E-4
124 45 4.153044487175457E-4
124 46 4.531549340864822E-4
124 47 4.939059902648149E-4
124 48 5.377238809458774E-4
124 49 5.847790507477894E-4
124 50 6.352457060019391E-4
124 51 6.893013368380249E-4
124 52 7.471261787510978E-4
124 53 8.089026121686099E-4
124 54 8.748144989104668E-4
124 55 9.450464548521614E-4
124 56 1.0197830585595082E-3
124 57 1.0992079961619481E-3
124 58 1.183503143267951E-3
124 59 1.2728475852982531E-3
124 60 1.367416578217387E-3
124 61 1.4673804522774983E-3
124 62 1.5729034620464647E-3
124 63 1.6841425866698377E-3
124 64 1.8012462850076334E-3
124 65 1.9243532109863046E-3
124 66 2.0535908952067335E-3
124 67 2.1890743995435897E-3
124 68 2.330904952152349E-3
124 69 2.4791685709596527E-3
124 70 2.633934684342309E-3
124 71 2.795254758291549E-3
124 72 2.9631609399036283E-3
124 73 3.1376647275268414E-3
124 74 3.3187556783199905E-3
124 75 3.5064001643299895E-3
124 76 3.7005401884686075E-3
124 77 3.901092271952699E-3
124 78 4.107946424861764E-3
124 79 4.32096521145483E-3
124 80 4.53998292177005E-3
124 81 4.76480486080035E-3
124 82 4.995206766193312E-3
124 83 5.230934364960887E-3
124 84 5.471703079103E-3
124 85 5.717197889348822E-3
124 86 5.967073365401693E-3
124 87 6.220953870141162E-3
124 88 6.478433944192542E-3
124 89 6.739078876126403E-3
124 90 7.002425462304573E-3
124 91 7.267982959054018E-3
124 92 7.535234228435287E-3
124 93 7.803637077389106E-3
124 94 8.072625788505754E-3
124 95 8.341612839080366E-3
124 96 8.609990803507927E-3
124 97 8.87713443244969E-3
124 98 9.142402900584164E-3
124 99 9.405142213157209E-3
124 100 9.664687759983982E-3
124 101 9.920367004047512E-3
124 102 1.0171502290401539E-2
124 103 1.0417413759735424E-2
124 104 1.0657422349712599E-2
124 105 1.0890852866066733E-2
124 106 1.1117037104445721E-2
124 107 1.1335317003146307E-2
124 108 1.1545047806193727E-2
124 109 1.174560121570136E-2
124 110 1.1936368512104304E-2
124 111 1.211676362070477E-2
124 112 1.2286226103001317E-2
124 113 1.2444224051501605E-2
124 114 1.2590256867140038E-2
124 115 1.2723857899036553E-2
124 116 1.2844596927137332E-2
124 117 1.2952082469266922E-2
124 118 1.3045963895286368E-2
124 119 1.3125933332383884E-2
124 120 1.3191727347011566E-2
124 121 1.3243128390610169E-2
124 122 1.3279965998018756E-2
124 123 1.33021177293305E-2
124 124 1.330950984791183E-2
124 125 1.33021177293305E-2
124 126 1.3279965998018756E-2
124 127 1.3243128390610169E-2
124 128 1.3191727347011566E-2
124 129 1.3125933332383884E-2
124 130 1.3045963895286368E-2
124 131 1.2952082469266922E-2
124 132 1.2844596927137332E-2
124 133 1.2723857899036553E-2
124 134 1.2590256867140038E-2
124 135 1.2444224051501605E-2
124 136 1.2286226103001317E-2
124 137 1.211676362070477E-2
124 138 1.1936368512104304E-2
124 139 1.174560121570136E-2
124 140 1.1545047806193727E-2
124 141 1.1335317003146307E-2
124 142 1.1117037104445721E-2
124 143 1.0890852866066733E-2
124 144 1.0657422349712599E-2
124 145 1.0417413759735424E-2
124 146 1.0171502290401539E-2
124 147 9.920367004047512E-3
124 148 9.664687759983982E-3
124 149 9.405142213157209E-3
124 150 9.142402900584164E-3
124 151 8.87713443244969E-3
124 152 8.609990803507927E-3
124 153 8.341612839080366E-3
124 154 8.072625788505754E-3
124 155 7.803637077389106E-3
124 156 7.535234228435287E-3
124 157 7.267982959054018E-3
124 158 7.002425462304573E-3
124 159 6.739078876126403E-3
124 160 6.478433944192542E-3
124 161 6.220953870141162E-3
124 162 5.967073365401693E-3
124 163 5.717197889348822E-3
124 164 5.471703079103E-3
124 165 5.230934364960887E-3
124 166 4.995206766193312E-3
124 167 4.76480486080035E-3
124 168 4.53998292177005E-3
124 169 4.32096521145483E-3
124 170 4.107946424861764E-3
124 171 3.901092271952699E-3
124 172 3.7005401884686075E-3
124 173 3.5064001643299895E-3
124 174 3.3187556783199905E-3
124 175 3.1376647275268414E-3
124 176 2.9631609399036283E-3
124 177 2.846708260459103E-3
124 178 2.6914030184456094E-3
124 179 2.543283582717869E-3
124 180 2.4023559494770665E-3
124 181 2.268612335116018E-3
124 182 2.1420327383138652E-3
124 183 2.0225865045248106E-3
124 184 1.9102338818000508E-3
124 185 1.8049275573229168E-3
124 186 1.7066141645174732E-3
124 187 1.6152357511036528E-3
124 188 1.5307311990110104E-3
124 189 1.4530375876223925E-3
124 190 1.382091492392795E-3
124 191 1.3178302114725078E-3
124 192 1.2601929135530505E-3
124 193 1.2091217007457094E-3
124 194 1.164562580892679E-3
124 195 1.1264663442975297E-3
124 196 1.0947893404431636E-3
124 197 1.0694941508405313E-3
124 198 1.0505501547194848E-3
124 199 1.0379339848342716E-3
124 200 1.0316298712106922E-3
125 26 5.746833410330014E-5
125 27 6.41150117582164E-5
125 28 7.145099732471724E-5
125 29 7.953793557242816E-5
125 30 8.844184310713185E-5
125 31 9.8233293538506E-5
125 32 1.0898759679241744E-4
125 33 1.2078497065307907E-4
125 34 1.3371070247100844E-4
125 35 1.478552988261544E-4
125 36 1.6331462079362345E-4
125 37 1.801900023241393E-4
125 38 1.9858834912484408E-4
125 39 2.186222153105597E-4
125 40 2.404098549935424E-4
125 41 2.64075245893548E-4
125 42 2.8974808198221224E-4
125 43 3.175637321289198E-4
125 44 3.4766316169206583E-4
125 45 3.801928140025063E-4
125 46 4.153044487175457E-4
125 47 4.531549340864822E-4
125 48 4.939059902648149E-4
125 49 5.377238809458774E-4
125 50 5.847790507477894E-4
125 51 6.352457060019391E-4
125 52 6.893013368380249E-4
125 53 7.471261787510978E-4
125 54 8.089026121686099E-4
125 55 8.748144989104668E-4
125 56 9.450464548521614E-4
125 57 1.0197830585595082E-3
125 58 1.0992079961619481E-3
125 59 1.183503143267951E-3
125 60 1.2728475852982531E-3
125 61 1.367416578217387E-3
125 62 1.4673804522774983E-3
125 63 1.5729034620464647E-3
125 64 1.6841425866698377E-3
125 65 1.8012462850076334E-3
125 66 1.9243532109863046E-3
125 67 2.0535908952067335E-3
125 68 2.1890743995435897E-3
125 69 2.330904952152349E-3
125 70 2.4791685709596527E-3
125 71 2.633934684342309E-3
125 72 2.795254758291549E-3
125 73 2.9631609399036283E-3
125 74 3.1376647275268414E-3
125 75 3.3187556783199905E-3
125 76 3.5064001643299895E-3
125 77 3.7005401884686075E-3
125 78 3.901092271952699E-3
125 79 4.107946424861764E-3
125 80 4.32096521145483E-3
125 81 4.53998292177005E-3
125 82 4.76480486080035E-3
125 83 4.995206766193312E-3
125 84 5.230934364960887E-3
125 85 5.471703079103E-3
125 86 5.717197889348822E-3
125 87 5.967073365401693E-3
125 88 6.220953870141162E-3
125 89 6.478433944192542E-3
125 90 6.739078876126403E-3
125 91 7.002425462304573E-3
125 92 7.267982959054018E-3
125 93 7.535234228435287E-3
125 94 7.803637077389106E-3
125 95 8.072625788505754E-3
125 96 8.341612839080366E-3
125 97 8.609990803507927E-3
125 98 8.87713443244969E-3
125 99 9.142402900584164E-3
125 100 9.405142213157209E-3
125 101 9.664687759983982E-3
125 102 9.920367004047512E-3
125 103 1.0171502290401539E-2
125 104 1.0417413759735424E-2
125 105 1.0657422349712599E-2
125 106 1.0890852866066733E-2
125 107 1.1117037104445721E-2
125 108 1.1335317003146307E-2
125 109 1.1545047806193727E-2
125 110 1.174560121570136E-2
125 111 1.1936368512104304E-2
125 112 1.211676362070477E-2
125 113 1.2286226103001317E-2
125 114 1.2444224051501605E-2
125 115 1.2590256867140038E-2
125 116 1.2723857899036553E-2
125 117 1.2844596927137332E-2
125 118 1.2952082469266922E-2
125 119 1.3045963895286368E-2
125 120 1.3125933332383884E-2
125 121 1.3191727347011566E-2
125 122 1.3243128390610169E-2
125 123 1.3279965998018756E-2
125 124 1.33021177293305E-2
125 125 1.330950984791183E-2
125 126 1.33021177293305E-2
125 127 1.3279965998018756E-2
125 128 1.3243128390610169E-2
125 129 1.3191727347011566E-2
125 130 1.3125933332383884E-2
125 131 1.3045963895286368E-2
125 132 1.2952082469266922E-2
125 133 1.2844596927137332E-2
125 134 1.2723857899036553E-2
125 135 1.2590256867140038E-2
125 136 1.2444224051501605E-2
125 137 1.2286226103001317E-2
125 138 1.211676362070477E-2
125 139 1.1936368512104304E-2
125 140 1.174560121570136E-2
125 141 1.1545047806193727E-2
125 142 1.1335317003146307E-2
125 143 1.1117037104445721E-2
125 144 1.0890852866066733E-2
125 145 1.0657422349712599E-2
125 146 1.0417413759735424E-2
125 147 1.0171502290401539E-2
125 148 9.920367004047512E-3
125 149 9.664687759983982E-3
125 150 9.405142213157209E-3
125 151 9.142402900584164E-3
125 152 8.87713443244969E-3
125 153 8.609990803507927E-3
125 154 8.341612839080366E-3
125 155 8.072625788505754E-3
125 156 7.803637077389106E-3
125 157 7.535234228435287E-3
125 158 7.267982959054018E-3
125 159 7.002425462304573E-3
125 160 6.739078876126403E-3
125 161 6.478433944192542E-3
125 162 6.220953870141162E-3
125 163 5.967073365401693E-3
125 164 5.717197889348822E-3
125 165 5.471703079103E-3
125 166 5.230934364960887E-3
125 167 4.995206766193312E-3
125 168 4.76480486080035E-3
125 169 4.53998292177005E-3
125 170 4.32096521145483E-3
125 171 4.107946424861764E-3
125 172 3.901092271952699E-3
125 173 3.7005401884686075E-3
125 174 3.5064001643299895E-3
125 175 3.3187556783199905E-3
125 176 3.1891182296943953E-3
125 177 3.0206292740069286E-3
125 178 2.8593697700497653E-3
125 179 2.7053856816670265E-3
125 180 2.558706506532081E-3
125 181 2.419346795259481E-3
125 182 2.2873076930820958E-3
125 183 2.162578491999151E-3
125 184 2.045138181639384E-3
125 185 1.9349569874786419E-3
125 186 1.8319978854959922E-3
125 187 1.7362180828400882E-3
125 188 1.6475704546016377E-3
125 189 1.566004927342231E-3
125 190 1.4914698006088128E-3
125 191 1.4239129982614933E-3
125 192 1.3632832420554962E-3
125 193 1.3095311405417205E-3
125 194 1.2626101869810812E-3
125 195 1.2224776606025326E-3
125 196 1.1890954261711162E-3
125 197 1.1624306274686436E-3
125 198 1.1424562709245072E-3
125 199 1.129151696266754E-3
125 200 1.1225029316936667E-3
126 27 5.746833410330014E-5
126 28 6.41150117582164E-5
126 29 7.145099732471724E-5
126 30 7.953793557242816E-5
126 31 8.844184310713185E-5
126 32 9.8233293538506E-5
126 33 1.0898759679241744E-4
126 34 1.2078497065307907E-4
126 35 1.3371070247100844E-4
126 36 1.478552988261544E-4
126 37 1.6331462079362345E-4
126 38 1.801900023241393E-4
126 39 1.9858834912484408E-4
126 40 2.186222153105597E-4
126 41 2.404098549935424E-4
126 42 2.64075245893548E-4
126 43 2.8974808198221224E-4
126 44 3.175637321289198E-4
126 45 3.4766316169206583E-4
126 46 3.801928140025063E-4
126 47 4.153044487175457E-4
126 48 4.531549340864822E-4
126 49 4.939059902648149E-4
126 50 5.377238809458774E-4
126 51 5.847790507477894E-4
126 52 6.352457060019391E-4
126 53 6.893013368380249E-4
126 54 7.471261787510978E-4
126 55 8.089026121686099E-4
126 56 8.748144989104668E-4
126 57 9.450464548521614E-4
126 58 1.0197830585595082E-3
126 59 1.0992079961619481E-3
126 60 1.183503143267951E-3
126 61 1.2728475852982531E-3
126 62 1.367416578217387E-3
126 63 1.4673804522774983E-3
126 64 1.5729034620464647E-3
126 65 1.6841425866698377E-3
126 66 1.8012462850076334E-3
126 67 1.9243532109863046E-3
126 68 2.0535908952067335E-3
126 69 2.1890743995435897E-3
126 70 2.330904952152349E-3
126 71 2.4791685709596527E-3
126 72 2.633934684342309E-3
126 73 2.795254758291549E-3
126 74 2.9631609399036283E-3
126 75 3.1376647275268414E-3
126 76 3.3187556783199905E-3
126 77 3.5064001643299895E-3
126 78 3.7005401884686075E-3
126 79 3.901092271952699E-3
126 80 4.107946424861764E-3
126 81 4.32096521145483E-3
126 82 4.53998292177005E-3
126 83 4.76480486080035E-3
126 84 4.995206766193312E-3
126 85 5.230934364960887E-3
126 86 5.471703079103E-3
126 87 5.717197889348822E-3
126 88 5.967073365401693E-3
126 89 6.220953870141162E-3
126 90 6.478433944192542E-3
126 91 6.739078876126403E-3
126 92 7.002425462304573E-3
126 93 7.267982959054018E-3
126 94 7.535234228435287E-3
126 95 7.803637077389106E-3
126 96 8.072625788505754E-3
126 97 8.341612839080366E-3
126 98 8.609990803507927E-3
126 99 8.87713443244969E-3
126 100 9.142402900584164E-3
126 101 9.405142213157209E-3
126 102 9.664687759983982E-3
126 103 9.920367004047512E-3
126 104 1.0171502290401539E-2
126 105 1.0417413759735424E-2
126 106 1.0657422349712599E-2
126 107 1.0890852866066733E-2
126 108 1.1117037104445721E-2
126 109 1.1335317003146307E-2
126 110 1.1545047806193727E-2
126 111 1.174560121570136E-2
126 112 1.1936368512104304E-2
126 113 1.211676362070477E-2
126 114 1.2286226103001317E-2
126 115 1.2444224051501605E-2
126 116 1.2590256867140038E-2
126 117 1.2723857899036553E-2
126 118 1.2844596927137332E-2
126 119 1.2952082469266922E-2
126 120 1.3045963895286368E-2
126 121 1.3125933332383884E-2
126 122 1.3191727347011566E-2
126 123 1.3243128390610169E-2
126 124 1.3279965998018756E-2
126 125 1.33021177293305E-2
126 126 1.330950984791183E-2
126 127 1.33021177293305E-2
126 128 1.3279965998018756E-2
126 129 1.3243128390610169E-2
126 130 1.3191727347011566E-2
126 131 1.3125933332383884E-2
126 132 1.3045963895286368E-2
126 133 1.2952082469266922E-2
126 134 1.2844596927137332E-2
126 135 1.2723857899036553E-2
126 136 1.2590256867140038E-2
126 137 1.2444224051501605E-2
126 138 1.2286226103001317E-2
126 139 1.211676362070477E-2
126 140 1.1936368512104304E-2
126 141 1.174560121570136E-2
126 142 1.1545047806193727E-2
126 143 1.1335317003146307E-2
126 144 1.1117037104445721E-2
126 145 1.0890852866066733E-2
126 146 1.0657422349712599E-2
126 147 1.0417413759735424E-2
126 148 1.0171502290401539E-2
126 149 9.920367004047512E-3
126 150 9.664687759983982E-3
126 151 9.405142213157209E-3
126 152 9.142402900584164E-3
126 153 8.87713443244969E-3
126 154 8.609990803507927E-3
126 155 8.341612839080366E-3
126 156 8.072625788505754E-3
126 157 7.803637077389106E-3
126 158 7.535234228435287E-3
126 159 7.267982959054018E-3
126 160 7.002425462304573E-3
126 161 6.739078876126403E-3
126 162 6.478433944192542E-3
126 163 6.220953870141162E-3
126 164 5.967073365401693E-3
126 165 5.717197889348822E-3
126 166 5.471703079103E-3
126 167 5.230934364960887E-3
126 168 4.995206766193312E-3
126 169 4.76480486080035E-3
126 170 4.53998292177005E-3
126 171 4.32096521145483E-3
126 172 4.107946424861764E-3
126 173 3.901092271952699E-3
126 174 3.7005401884686075E-3
126 175 3.5578536664975435E-3
126 176 3.376224012423291E-3
126 177 3.2017797392850577E-3
126 178 3.0346119372283457E-3
126 179 2.8747926938639773E-3
126 180 2.7223765274494408E-3
126 181 2.577401864498159E-3
126 182 2.4398925489447667E-3
126 183 2.309859370196669E-3
126 184 2.187301597677742E-3
126 185 2.072208509812459E-3
126 186 1.9645609058012567E-3
126 187 1.864332588993977E-3
126 188 1.7714918111713088E-3
126 189 1.686002667588058E-3
126 190 1.6078264332109293E-3
126 191 1.5369228311918012E-3
126 192 1.4732512252501632E-3
126 193 1.416771728290868E-3
126 194 1.367446220251574E-3
126 195 1.3252392688546677E-3
126 196 1.2901189476280126E-3
126 197 1.262057546255092E-3
126 198 1.2410321690159128E-3
126 199 1.2270252177839023E-3
126 200 1.2200247567497285E-3
127 28 5.746833410330014E-5
127 29 6.41150117582164E-5
127 30 7.145099732471724E-5
127 31 7.953793557242816E-5
127 32 8.844184310713185E-5
127 33 9.8233293538506E-5
127 34 1.0898759679241744E-4
127 35 1.2078497065307907E-4
127 36 1.3371070247100844E-4
127 37 1.478552988261544E-4
127 38 1.6331462079362345E-4
127 39 1.801900023241393E-4
127 40 1.9858834912484408E-4
127 41 2.186222153105597E-4
127 42 2.404098549935424E-4
127 43 2.64075245893548E-4
127 44 2.8974808198221224E-4
127 45 3.175637321289198E-4
127 46 3.4766316169206583E-4
127 47 3.801928140025063E-4
127 48 4.153044487175457E-4
127 49 4.531549340864822E-4
127 50 4.939059902648149E-4
127 51 5.377238809458774E-4
127 52 5.847790507477894E-4
127 53 6.352457060019391E-4
127 54 6.893013368380249E-4
127 55 7.471261787510978E-4
127 56 8.089026121686099E-4
127 57 8.748144989104668E-4
127 58 9.450464548521614E-4
127 59 1.0197830585595082E-3
127 60 1.0992079961619481E-3
127 61 1.183503143267951E-3
127 62 1.2728475852982531E-3
127 63 1.367416578217387E-3
127 64 1.4673804522774983E-3
127 65 1.5729034620464647E-3
127 66 1.6841425866698377E-3
127 67 1.8012462850076334E-3
127 68 1.9243532109863046E-3
127 69 2.0535908952067335E-3
127 70 2.1890743995435897E-3
127 71 2.330904952152349E-3
127 72 2.4791685709596527E-3
127 73 2.633934684342309E-3
127 74 2.795254758291549E-3
127 75 2.9631609399036283E-3
127 76 3.1376647275268414E-3
127 77 3.3187556783199905E-3
127 78 3.5064001643299895E-3
127 79 3.7005401884686075E-3
127 80 3.901092271952699E-3
127 81 4.107946424861764E-3
127 82 4.32096521145483E-3
127 83 4.53998292177005E-3
127 84 4.76480486080035E-3
127 85 4.995206766193312E-3
127 86 5.230934364960887E-3
127 87 5.471703079103E-3
127 88 5.717197889348822E-3
127 89 5.967073365401693E-3
127 90 6.220953870141162E-3
127 91 6.478433944192542E-3
127 92 6.739078876126403E-3
127 93 7.002425462304573E-3
127 94 7.267982959054018E-3
127 95 7.535234228435287E-3
127 96 7.803637077389106E-3
127 97 8.072625788505754E-3
127 98 8.341612839080366E-3
127 99 8.609990803507927E-3
127 100 8.87713443244969E-3
127 101 9.142402900584164E-3
127 102 9.405142213157209E-3
127 103 9.664687759983982E-3
127 104 9.920367004047512E-3
127 105 1.0171502290401539E-2
127 106 1.0417413759735424E-2
127 107 1.0657422349712599E-2
127 108 1.0890852866066733E-2
127 109 1.1117037104445721E-2
127 110 1.1335317003146307E-2
127 111 1.1545047806193727E-2
127 112 1.174560121570136E-2
127 113 1.1936368512104304E-2
127 114 1.211676362070477E-2
127 115 1.2286226103001317E-2
127 116 1.2444224051501605E-2
127 117 1.2590256867140038E-2
127 118 1.2723857899036553E-2
127 119 1.2844596927137332E-2
127 120 1.2952082469266922E-2
127 121 1.3045963895286368E-2
127 122 1.3125933332383884E-2
127 123 1.3191727347011566E-2
127 124 1.3243128390610169E-2
127 125 1.3279965998018756E-2
127 126 1.33021177293305E-2
127 127 1.330950984791183E-2
127 128 1.33021177293305E-2
127 129 1.3279965998018756E-2
127 130 1.3243128390610169E-2
127 131 1.3191727347011566E-2
127 132 1.3125933332383884E-2
127 133 1.3045963895286368E-2
127 134 1.2952082469266922E-2
127 135 1.2844596927137332E-2
127 136 1.2723857899036553E-2
127 137 1.2590256867140038E-2
127 138 1.2444224051501605E-2
127 139 1.2286226103001317E-2
127 140 1.211676362070477E-2
127 141 1.1936368512104304E-2
127 142 1.174560121570136E-2
127 143 1.1545047806193727E-2
127 144 1.1335317003146307E-2
127 145 1.1117037104445721E-2
127 146 1.0890852866066733E-2
127 147 1.0657422349712599E-2
127 148 1.0417413759735424E-2
127 149 1.0171502290401539E-2
127 150 9.920367004047512E-3
127 151 9.664687759983982E-3
127 152 9.405142213157209E-3
127 153 9.142402900584164E-3
127 154 8.87713443244969E-3
127 155 8.609990803507927E-3
127 156 8.341612839080366E-3
127 157 8.072625788505754E-3
127 158 7.803637077389106E-3
127 159 7.535234228435287E-3
127 160 7.267982959054018E-3
127 161 7.002425462304573E-3
127 162 6.739078876126403E-3
127 163 6.478433944192542E-3
127 164 6.220953870141162E-3
127 165 5.967073365401693E-3
127 166 5.717197889348822E-3
127 167 5.471703079103E-3
127 168 5.230934364960887E-3
127 169 4.995206766193312E-3
127 170 4.76480486080035E-3
127 171 4.53998292177005E-3
127 172 4.32096521145483E-3
127 173 4.107946424861764E-3
127 174 3.952545774120253E-3
127 175 3.758008522571908E-3
127 176 3.570515176088206E-3
127 177 3.390206675644708E-3
127 178 3.2172026630992697E-3
127 179 3.05160278301076E-3
127 180 2.893488051830055E-3
127 181 2.7429222811347267E-3
127 182 2.599953541612732E-3
127 183 2.4646156546233576E-3
127 184 2.336929698369744E-3
127 185 2.216905516000357E-3
127 186 2.104543213310444E-3
127 187 1.9998346341324777E-3
127 188 1.9027648019803974E-3
127 189 1.813313317040007E-3
127 190 1.7314556981710464E-3
127 191 1.6571646601995992E-3
127 192 1.590411317427173E-3
127 193 1.5311663049600167E-3
127 194 1.4794008101644545E-3
127 195 1.435087507277054E-3
127 196 1.3982013889386436E-3
127 197 1.3687204891752818E-3
127 198 1.3466264931144873E-3
127 199 1.3319052294988873E-3
127 200 1.324547042839964E-3
128 29 5.746833410330014E-5
128 30 6.41150117582164E-5
128 31 7.145099732471724E-5
128 32 7.953793557242816E-5
128 33 8.844184310713185E-5
128 34 9.8233293538506E-5
128 35 1.0898759679241744E-4
128 36 1.2078497065307907E-4
128 37 1.3371070247100844E-4
128 38 1.478552988261544E-4
128 39 1.6331462079362345E-4
128 40 1.801900023241393E-4
128 41 1.9858834912484408E-4
128 42 2.186222153105597E-4
128 43 2.404098549935424E-4
128 44 2.64075245893548E-4
128 45 2.8974808198221224E-4
128 46 3.175637321289198E-4
128 47 3.4766316169206583E-4
128 48 3.801928140025063E-4
128 49 4.153044487175457E-4
128 50 4.531549340864822E-4
128 51 4.939059902648149E-4
128 52 5.377238809458774E-4
128 53 5.847790507477894E-4
128 54 6.352457060019391E-4
128 55 6.893013368380249E-4
128 56 7.471261787510978E-4
128 57 8.089026121686099E-4
128 58 8.748144989104668E-4
128 59 9.450464548521614E-4
128 60 1.0197830585595082E-3
128 61 1.0992079961619481E-3
128 62 1.183503143267951E-3
128 63 1.2728475852982531E-3
128 64 1.367416578217387E-3
128 65 1.4673804522774983E-3
128 66 1.5729034620464647E-3
128 67 1.6841425866698377E-3
128 68 1.8012462850076334E-3
128 69 1.9243532109863046E-3
128 70 2.0535908952067335E-3
128 71 2.1890743995435897E-3
128 72 2.330904952152349E-3
128 73 2.4791685709596527E-3
128 74 2.633934684342309E-3
128 75 2.795254758291549E-3
128 76 2.9631609399036283E-3
128 77 3.1376647275268414E-3
128 78 3.3187556783199905E-3
128 79 3.5064001643299895E-3
128 80 3.7005401884686075E-3
128 81 3.901092271952699E-3
128 82 4.107946424861764E-3
128 83 4.32096521145483E-3
128 84 4.53998292177005E-3
128 85 4.76480486080035E-3
128 86 4.995206766193312E-3
128 87 5.230934364960887E-3
128 88 5.471703079103E-3
128 89 5.717197889348822E-3
128 90 5.967073365401693E-3
128 91 6.220953870141162E-3
128 92 6.478433944192542E-3
128 93 6.739078876126403E-3
128 94 7.002425462304573E-3
128 95 7.267982959054018E-3
128 96 7.535234228435287E-3
128 97 7.803637077389106E-3
128 98 8.072625788505754E-3
128 99 8.341612839080366E-3
128 100 8.609990803507927E-3
128 101 8.87713443244969E-3
128 102 9.142402900584164E-3
128 103 9.405142213157209E-3
128 104 9.664687759983982E-3
128 105 9.920367004047512E-3
128 106 1.0171502290401539E-2
128 107 1.0417413759735424E-2
128 108 1.0657422349712599E-2
128 109 1.0890852866066733E-2
128 110 1.1117037104445721E-2
128 111 1.1335317003146307E-2
128 112 1.1545047806193727E-2
128 113 1.174560121570136E-2
128 114 1.1936368512104304E-2
128 115 1.211676362070477E-2
128 116 1.2286226103001317E-2
128 117 1.2444224051501605E-2
128 118 1.2590256867140038E-2
128 119 1.2723857899036553E-2
128 120 1.2844596927137332E-2
128 121 1.2952082469266922E-2
128 122 1.3045963895286368E-2
128 123 1.3125933332383884E-2
128 124 1.3191727347011566E-2
128 125 1.3243128390610169E-2
128 126 1.3279965998018756E-2
128 127 1.33021177293305E-2
128 128 1.330950984791183E-2
128 129 1.33021177293305E-2
128 130 1.3279965998018756E-2
128 131 1.3243128390610169E-2
128 132 1.3191727347011566E-2
128 133 1.3125933332383884E-2
128 134 1.3045963895286368E-2
128 135 1.2952082469266922E-2
128 136 1.2844596927137332E-2
128 137 1.2723857899036553E-2
128 138 1.2590256867140038E-2
128 139 1.2444224051501605E-2
128 140 1.2286226103001317E-2
128 141 1.211676362070477E-2
128 142 1.1936368512104304E-2
128 143 1.174560121570136E-2
128 144 1.1545047806193727E-2
128 145 1.1335317003146307E-2
128 146 1.1117037104445721E-2
128 147 1.0890852866066733E-2
128 148 1.0657422349712599E-2
128 149 1.0417413759735424E-2
128 150 1.0171502290401539E-2
128 151 9.920367004047512E-3
128 152 9.664687759983982E-3
128 153 9.405142213157209E-3
128 154 9.142402900584164E-3
128 155 8.87713443244969E-3
128 156 8.609990803507927E-3
128 157 8.341612839080366E-3
128 158 8.072625788505754E-3
128 159 7.803637077389106E-3
128 160 7.535234228435287E-3
128 161 7.267982959054018E-3
128 162 7.002425462304573E-3
128 163 6.739078876126403E-3
128 164 6.478433944192542E-3
128 165 6.220953870141162E-3
128 166 5.967073365401693E-3
128 167 5.717197889348822E-3
128 168 5.471703079103E-3
128 169 5.230934364960887E-3
128 170 4.995206766193312E-3
128 171 4.76480486080035E-3
128 172 4.53998292177005E-3
128 173 4.372418713622384E-3
128 174 4.1654147589650645E-3
128 175 3.965207283710916E-3
128 176 3.771991185793325E-3
128 177 3.585938099902418E-3
128 178 3.4071975214271222E-3
128 179 3.2358980210653475E-3
128 180 3.072148536696046E-3
128 181 2.9160397289446282E-3
128 182 2.7676453868133175E-3
128 183 2.627023869785807E-3
128 184 2.4942195729459726E-3
128 185 2.369264401867729E-3
128 186 2.2521792443315775E-3
128 187 2.142975426296864E-3
128 188 2.0416561400011758E-3
128 189 1.9482178325633858E-3
128 190 1.862651544028677E-3
128 191 1.7849441844064182E-3
128 192 1.7150797399094527E-3
128 193 1.6530403993007595E-3
128 194 1.5988075919854967E-3
128 195 1.5523629302484302E-3
128 196 1.513689048824323E-3
128 197 1.4827703357980387E-3
128 198 1.4595935496582563E-3
128 199 1.444148318170549E-3
128 200 1.4364275155891227E-3
129 30 5.746833410330014E-5
129 31 6.41150117582164E-5
129 32 7.145099732471724E-5
129 33 7.953793557242816E-5
129 34 8.844184310713185E-5
129 35 9.8233293538506E-5
129 36 1.0898759679241744E-4
129 37 1.2078497065307907E-4
129 38 1.3371070247100844E-4
129 39 1.478552988261544E-4
129 40 1.6331462079362345E-4
129 41 1.801900023241393E-4
129 42 1.9858834912484408E-4
129 43 2.186222153105597E-4
129 44 2.404098549935424E-4
129 45 2.64075245893548E-4
129 46 2.8974808198221224E-4
129 47 3.175637321289198E-4
129 48 3.4766316169206583E-4
129 49 3.801928140025063E-4
129 50 4.153044487175457E-4
129 51 4.531549340864822E-4
129 52 4.939059902648149E-4
129 53 5.377238809458774E-4
129 54 5.847790507477894E-4
129 55 6.352457060019391E-4
129 56 6.893013368380249E-4
129 57 7.471261787510978E-4
129 58 8.089026121686099E-4
129 59 8.748144989104668E-4
129 60 9.450464548521614E-4
129 61 1.0197830585595082E-3
129 62 1.0992079961619481E-3
129 63 1.183503143267951E-3
129 64 1.2728475852982531E-3
129 65 1.367416578217387E-3
129 66 1.4673804522774983E-3
129 67 1.5729034620464647E-3
129 68 1.6841425866698377E-3
129 69 1.8012462850076334E-3
129 70 1.9243532109863046E-3
129 71 2.0535908952067335E-3
129 72 2.1890743995435897E-3
129 73 2.330904952152349E-3
129 74 2.4791685709596527E-3
129 75 2.633934684342309E-3
129 76 2.795254758291549E-3
129 77 2.9631609399036283E-3
129 78 3.1376647275268414E-3
129 79 3.3187556783199905E-3
129 80 3.5064001643299895E-3
129 81 3.7005401884686075E-3
129 82 3.901092271952699E-3
129 83 4.107946424861764E-3
129 84 4.32096521145483E-3
129 85 4.53998292177005E-3
129 86 4.76480486080035E-3
129 87 4.995206766193312E-3
129 88 5.230934364960887E-3
129 89 5.471703079103E-3
129 90 5.717197889348822E-3
129 91 5.967073365401693E-3
129 92 6.220953870141162E-3
129 93 6.478433944192542E-3
129 94 6.739078876126403E-3
129 95 7.002425462304573E-3
129 96 7.267982959054018E-3
129 97 7.535234228435287E-3
129 98 7.803637077389106E-3
129 99 8.072625788505754E-3
129 100 8.341612839080366E-3
129 101 8.609990803507927E-3
129 102 8.87713443244969E-3
129 103 9.142402900584164E-3
129 104 9.405142213157209E-3
129 105 9.664687759983982E-3
129 106 9.920367004047512E-3
129 107 1.0171502290401539E-2
129 108 1.0417413759735424E-2
129 109 1.0657422349712599E-2
129 110 1.0890852866066733E-2
129 111 1.1117037104445721E-2
129 112 1.1335317003146307E-2
129 113 1.1545047806193727E-2
129 114 1.174560121570136E-2
129 115 1.1936368512104304E-2
129 116 1.211676362070477E-2
129 117 1.2286226103001317E-2
129 118 1.2444224051501605E-2
129 119 1.2590256867140038E-2
129 120 1.2723857899036553E-2
129 121 1.2844596927137332E-2
129 122 1.2952082469266922E-2
129 123 1.3045963895286368E-2
129 124 1.3125933332383884E-2
129 125 1.3191727347011566E-2
129 126 1.3243128390610169E-2
129 127 1.3279965998018756E-2
129 128 1.33021177293305E-2
129 129 1.330950984791183E-2
129 130 1.33021177293305E-2
129 131 1.3279965998018756E-2
129 132 1.3243128390610169E-2
129 133 1.3191727347011566E-2
129 134 1.3125933332383884E-2
129 135 1.3045963895286368E-2
129 136 1.2952082469266922E-2
129 137 1.2844596927137332E-2
129 138 1.2723857899036553E-2
129 139 1.2590256867140038E-2
129 140 1.2444224051501605E-2
129 141 1.2286226103001317E-2
129 142 1.211676362070477E-2
129 143 1.1936368512104304E-2
129 144 1.174560121570136E-2
129 145 1.1545047806193727E-2
129 146 1.1335317003146307E-2
129 147 1.1117037104445721E-2
129 148 1.0890852866066733E-2
129 149 1.0657422349712599E-2
129 150 1.0417413759735424E-2
129 151 1.0171502290401539E-2
129 152 9.920367004047512E-3
129 153 9.664687759983982E-3
129 154 9.405142213157209E-3
129 155 9.142402900584164E-3
129 156 8.87713443244969E-3
129 157 8.609990803507927E-3
129 158 8.341612839080366E-3
129 159 8.072625788505754E-3
129 160 7.803637077389106E-3
129 161 7.535234228435287E-3
129 162 7.267982959054018E-3
129 163 7.002425462304573E-3
129 164 6.739078876126403E-3
129 165 6.478433944192542E-3
129 166 6.220953870141162E-3
129 167 5.967073365401693E-3
129 168 5.717197889348822E-3
129 169 5.471703079103E-3
129 170 5.230934364960887E-3
129 171 4.995206766193312E-3
129 172 4.816258362967904E-3
129 173 4.59745125587335E-3
129 174 4.3850802232130465E-3
129 175 4.179397422186482E-3
129 176 3.980630207525127E-3
129 177 3.788982031575739E-3
129 178 3.6046334578684956E-3
129 179 3.427743275112408E-3
129 180 3.2584496981799206E-3
129 181 3.0968716423746367E-3
129 182 2.9431100571177034E-3
129 183 2.7972493051359325E-3
129 184 2.659358573283792E-3
129 185 2.529493301277193E-3
129 186 2.4076966148541493E-3
129 187 2.294000750200276E-3
129 188 2.1884284568798526E-3
129 189 2.0909943669898457E-3
129 190 2.0017063187987576E-3
129 191 1.9205666237385305E-3
129 192 1.8475732662800047E-3
129 193 1.7827210269349327E-3
129 194 1.7260025193847352E-3
129 195 1.677409133532766E-3
129 196 1.6369318771078255E-3
129 197 1.6045621093072975E-3
129 198 1.5802921608541005E-3
129 199 1.5641158357484917E-3
129 200 1.5560287909197076E-3
130 31 5.746833410330014E-5
130 32 6.41150117582164E-5
130 33 7.145099732471724E-5
130 34 7.953793557242816E-5
130 35 8.844184310713185E-5
130 36 9.8233293538506E-5
130 37 1.0898759679241744E-4
130 38 1.2078497065307907E-4
130 39 1.3371070247100844E-4
130 40 1.478552988261544E-4
130 41 1.6331462079362345E-4
130 42 1.801900023241393E-4
130 43 1.9858834912484408E-4
130 44 2.186222153105597E-4
130 45 2.404098549935424E-4
130 46 2.64075245893548E-4
130 47 2.8974808198221224E-4
130 48 3.175637321289198E-4
130 49 3.4766316169206583E-4
130 50 3.801928140025063E-4
130 51 4.153044487175457E-4
130 52 4.531549340864822E-4
130 53 4.939059902648149E-4
130 54 5.377238809458774E-4
130 55 5.847790507477894E-4
130 56 6.352457060019391E-4
130 57 6.893013368380249E-4
130 58 7.471261787510978E-4
130 59 8.089026121686099E-4
130 60 8.748144989104668E-4
130 61 9.450464548521614E-4
130 62 1.0197830585595082E-3
130 63 1.0992079961619481E-3
130 64 1.183503143267951E-3
130 65 1.2728475852982531E-3
130 66 1.367416578217387E-3
130 67 1.4673804522774983E-3
130 68 1.5729034620464647E-3
130 69 1.6841425866698377E-3
130 70 1.8012462850076334E-3
130 71 1.9243532109863046E-3
130 72 2.0535908952067335E-3
130 73 2.1890743995435897E-3
130 74 2.330904952152349E-3
130 75 2.4791685709596527E-3
130 76 2.633934684342309E-3
130 77 2.795254758291549E-3
130 78 2.9631609399036283E-3
130 79 3.1376647275268414E-3
130 80 3.3187556783199905E-3
130 81 3.5064001643299895E-3
130 82 3.7005401884686075E-3
130 83 3.901092271952699E-3
130 84 4.107946424861764E-3
130 85 4.32096521145483E-3
130 86 4.53998292177005E-3
130 87 4.76480486080035E-3
130 88 4.995206766193312E-3
130 89 5.230934364960887E-3
130 90 5.471703079103E-3
130 91 5.717197889348822E-3
130 92 5.967073365401693E-3
130 93 6.220953870141162E-3
130 94 6.478433944192542E-3
130 95 6.739078876126403E-3
130 96 7.002425462304573E-3
130 97 7.267982959054018E-3
130 98 7.535234228435287E-3
130 99 7.803637077389106E-3
130 100 8.072625788505754E-3
130 101 8.341612839080366E-3
130 102 8.609990803507927E-3
130 103 8.87713443244969E-3
130 104 9.142402900584164E-3
130 105 9.405142213157209E-3
130 106 9.664687759983982E-3
130 107 9.920367004047512E-3
130 108 1.0171502290401539E-2
130 109 1.0417413759735424E-2
130 110 1.0657422349712599E-2
130 111 1.0890852866066733E-2
130 112 1.1117037104445721E-2
130 113 1.1335317003146307E-2
130 114 1.1545047806193727E-2
130 115 1.174560121570136E-2
130 116 1.1936368512104304E-2
130 117 1.211676362070477E-2
130 118 1.2286226103001317E-2
130 119 1.2444224051501605E-2
130 120 1.2590256867140038E-2
130 121 1.2723857899036553E-2
130 122 1.2844596927137332E-2
130 123 1.2952082469266922E-2
130 124 1.3045963895286368E-2
130 125 1.3125933332383884E-2
130 126 1.3191727347011566E-2
130 127 1.3243128390610169E-2
130 128 1.3279965998018756E-2
130 129 1.33021177293305E-2
130 130 1.330950984791183E-2
130 131 1.33021177293305E-2
130 132 1.3279965998018756E-2
130 133 1.3243128390610169E-2
130 134 1.3191727347011566E-2
130 135 1.3125933332383884E-2
130 136 1.3045963895286368E-2
130 137 1.2952082469266922E-2
130 138 1.2844596927137332E-2
130 139 1.2723857899036553E-2
130 140 1.2590256867140038E-2
130 141 1.2444224051501605E-2
130 142 1.2286226103001317E-2
130 143 1.211676362070477E-2
130 144 1.1936368512104304E-2
130 145 1.174560121570136E-2
130 146 1.1545047806193727E-2
130 147 1.1335317003146307E-2
130 148 1.1117037104445721E-2
130 149 1.0890852866066733E-2
130 150 1.0657422349712599E-2
130 151 1.0417413759735424E-2
130 152 1.0171502290401539E-2
130 153 9.920367004047512E-3
130 154 9.664687759983982E-3
130 155 9.405142213157209E-3
130 156 9.142402900584164E-3
130 157 8.87713443244969E-3
130 158 8.609990803507927E-3
130 159 8.341612839080366E-3
130 160 8.072625788505754E-3
130 161 7.803637077389106E-3
130 162 7.535234228435287E-3
130 163 7.267982959054018E-3
130 164 7.002425462304573E-3
130 165 6.739078876126403E-3
130 166 6.478433944192542E-3
130 167 6.220953870141162E-3
130 168 5.967073365401693E-3
130 169 5.717197889348822E-3
130 170 5.471703079103E-3
130 171 5.282387867128441E-3
130 172 5.0526751002966126E-3
130 173 4.828919872558567E-3
130 174 4.611433919094767E-3
130 175 4.400503147027258E-3
130 176 4.196388267968896E-3
130 177 3.999325565491205E-3
130 178 3.809527785261025E-3
130 179 3.6271851349830688E-3
130 180 3.452466380790999E-3
130 181 3.285520026352996E-3
130 182 3.1264755606972517E-3
130 183 2.9754447606156883E-3
130 184 2.832523033467153E-3
130 185 2.6977907862702124E-3
130 186 2.5713148071458917E-3
130 187 2.4531496454371377E-3
130 188 2.3433389771889456E-3
130 189 2.2419169431152244E-3
130 190 2.1489094466996994E-3
130 191 2.064335400672344E-3
130 192 1.9882079107640103E-3
130 193 1.9205353863639804E-3
130 194 1.8613225684822017E-3
130 195 1.8105714662441305E-3
130 196 1.7682821940157405E-3
130 197 1.7344537021638873E-3
130 198 1.7090843953975331E-3
130 199 1.6921726336032593E-3
130 200 1.6837171110790766E-3
131 32 5.746833410330014E-5
131 33 6.41150117582164E-5
131 34 7.145099732471724E-5
131 35 7.953793557242816E-5
131 36 8.844184310713185E-5
131 37 9.8233293538506E-5
131 38 1.0898759679241744E-4
131 39 1.2078497065307907E-4
131 40 1.3371070247100844E-4
131 41 1.478552988261544E-4
131 42 1.6331462079362345E-4
131 43 1.801900023241393E-4
131 44 1.9858834912484408E-4
131 45 2.186222153105597E-4
131 46 2.404098549935424E-4
131 47 2.64075245893548E-4
131 48 2.8974808198221224E-4
131 49 3.175637321289198E-4
131 50 3.4766316169206583E-4
131 51 3.801928140025063E-4
131 52 4.153044487175457E-4
131 53 4.531549340864822E-4
131 54 4.939059902648149E-4
131 55 5.377238809458774E-4
131 56 5.847790507477894E-4
131 57 6.352457060019391E-4
131 58 6.893013368380249E-4
131 59 7.471261787510978E-4
131 60 8.089026121686099E-4
131 61 8.748144989104668E-4
131 62 9.450464548521614E-4
131 63 1.0197830585595082E-3
131 64 1.0992079961619481E-3
131 65 1.183503143267951E-3
131 66 1.2728475852982531E-3
131 67 1.367416578217387E-3
131 68 1.4673804522774983E-3
131 69 1.5729034620464647E-3
131 70 1.6841425866698377E-3
131 71 1.8012462850076334E-3
131 72 1.9243532109863046E-3
131 73 2.0535908952067335E-3
131 74 2.1890743995435897E-3
131 75 2.330904952152349E-3
131 76 2.4791685709596527E-3
131 77 2.633934684342309E-3
131 78 2.795254758291549E-3
131 79 2.9631609399036283E-3
131 80 3.1376647275268414E-3
131 81 3.3187556783199905E-3
131 82 3.5064001643299895E-3
131 83 3.7005401884686075E-3
131 84 3.901092271952699E-3
131 85 4.107946424861764E-3
131 86 4.32096521145483E-3
131 87 4.53998292177005E-3
131 88 4.76480486080035E-3
131 89 4.995206766193312E-3
131 90 5.230934364960887E-3
131 91 5.471703079103E-3
131 92 5.717197889348822E-3
131 93 5.967073365401693E-3
131 94 6.220953870141162E-3
131 95 6.478433944192542E-3
131 96 6.739078876126403E-3
131 97 7.002425462304573E-3
131 98 7.267982959054018E-3
131 99 7.535234228435287E-3
131 100 7.803637077389106E-3
131 101 8.072625788505754E-3
131 102 8.341612839080366E-3
131 103 8.609990803507927E-3
131 104 8.87713443244969E-3
131 105 9.142402900584164E-3
131 106 9.405142213157209E-3
131 107 9.664687759983982E-3
131 108 9.920367004047512E-3
131 109 1.0171502290401539E-2
131 110 1.0417413759735424E-2
131 111 1.0657422349712599E-2
131 112 1.0890852866066733E-2
131 113 1.1117037104445721E-2
131 114 1.1335317003146307E-2
131 115 1.1545047806193727E-2
131 116 1.174560121570136E-2
131 117 1.1936368512104304E-2
131 118 1.211676362070477E-2
131 119 1.2286226103001317E-2
131 120 1.2444224051501605E-2
131 121 1.2590256867140038E-2
131 122 1.2723857899036553E-2
131 123 1.2844596927137332E-2
131 124 1.2952082469266922E-2
131 125 1.3045963895286368E-2
131 126 1.3125933332383884E-2
131 127 1.3191727347011566E-2
131 128 1.3243128390610169E-2
131 129 1.3279965998018756E-2
131 130 1.33021177293305E-2
131 131 1.330950984791183E-2
131 132 1.33021177293305E-2
131 133 1.3279965998018756E-2
131 134 1.3243128390610169E-2
131 135 1.3191727347011566E-2
131 136 1.3125933332383884E-2
131 137 1.3045963895286368E-2
131 138 1.2952082469266922E-2
131 139 1.2844596927137332E-2
131 140 1.2723857899036553E-2
131 141 1.2590256867140038E-2
131 142 1.2444224051501605E-2
131 143 1.2286226103001317E-2
131 144 1.211676362070477E-2
131 145 1.1936368512104304E-2
131 146 1.174560121570136E-2
131 147 1.1545047806193727E-2
131 148 1.1335317003146307E-2
131 149 1.1117037104445721E-2
131 150 1.0890852866066733E-2
131 151 1.0657422349712599E-2
131 152 1.0417413759735424E-2
131 153 1.0171502290401539E-2
131 154 9.920367004047512E-3
131 155 9.664687759983982E-3
131 156 9.405142213157209E-3
131 157 9.142402900584164E-3
131 158 8.87713443244969E-3
131 159 8.609990803507927E-3
131 160 8.341612839080366E-3
131 161 8.072625788505754E-3
131 162 7.803637077389106E-3
131 163 7.535234228435287E-3
131 164 7.267982959054018E-3
131 165 7.002425462304573E-3
131 166 6.739078876126403E-3
131 167 6.478433944192542E-3
131 168 6.220953870141162E-3
131 169 5.967073365401693E-3
131 170 5.768651391516376E-3
131 171 5.5291714132063E-3
131 172 5.295049376719103E-3
131 173 5.06665776351803E-3
131 174 4.844342796372778E-3
131 175 4.6284247648771815E-3
131 176 4.419198504993335E-3
131 177 4.216934021654181E-3
131 178 4.0218772426057784E-3
131 179 3.834250890939616E-3
131 180 3.654255463156144E-3
131 181 3.482070299113614E-3
131 182 3.3178547298509807E-3
131 183 3.1617492890284723E-3
131 184 3.0138769736021086E-3
131 185 2.8743445393358516E-3
131 186 2.7432438168532008E-3
131 187 2.620653034134561E-3
131 188 2.5066381316725095E-3
131 189 2.4012540568987993E-3
131 190 2.3045460249888107E-3
131 191 2.216550733725179E-3
131 192 2.13729752075632E-3
131 193 2.0668094523112798E-3
131 194 2.0051043332233757E-3
131 195 1.9521956289651763E-3
131 196 1.9080932913001923E-3
131 197 1.8728044801059759E-3
131 198 1.846334174913046E-3
131 199 1.828685670728118E-3
131 200 1.8198609537626283E-3
132 33 5.746833410330014E-5
132 34 6.41150117582164E-5
132 35 7.145099732471724E-5
132 36 7.953793557242816E-5
132 37 8.844184310713185E-5
132 38 9.8233293538506E-5
132 39 1.0898759679241744E-4
132 40 1.2078497065307907E-4
132 41 1.3371070247100844E-4
132 42 1.478552988261544E-4
132 43 1.6331462079362345E-4
132 44 1.801900023241393E-4
132 45 1.9858834912484408E-4
132 46 2.186222153105597E-4
132 47 2.404098549935424E-4
132 48 2.64075245893548E-4
132 49 2.8974808198221224E-4
132 50 3.175637321289198E-4
132 51 3.4766316169206583E-4
132 52 3.801928140025063E-4
132 53 4.153044487175457E-4
132 54 4.531549340864822E-4
132 55 4.939059902648149E-4
132 56 5.377238809458774E-4
132 57 5.847790507477894E-4
132 58 6.352457060019391E-4
132 59 6.893013368380249E-4
132 60 7.471261787510978E-4
132 61 8.089026121686099E-4
132 62 8.748144989104668E-4
132 63 9.450464548521614E-4
132 64 1.0197830585595082E-3
132 65 1.0992079961619481E-3
132 66 1.183503143267951E-3
132 67 1.2728475852982531E-3
132 68 1.367416578217387E-3
132 69 1.4673804522774983E-3
132 70 1.5729034620464647E-3
132 71 1.6841425866698377E-3
132 72 1.8012462850076334E-3
132 73 1.9243532109863046E-3
132 74 2.0535908952067335E-3
132 75 2.1890743995435897E-3
132 76 2.330904952152349E-3
132 77 2.4791685709596527E-3
132 78 2.633934684342309E-3
132 79 2.795254758291549E-3
132 80 2.9631609399036283E-3
132 81 3.1376647275268414E-3
132 82 3.3187556783199905E-3
132 83 3.5064001643299895E-3
132 84 3.7005401884686075E-3
132 85 3.901092271952699E-3
132 86 4.107946424861764E-3
132 87 4.32096521145483E-3
132 88 4.53998292177005E-3
132 89 4.76480486080035E-3
132 90 4.995206766193312E-3
132 91 5.230934364960887E-3
132 92 5.471703079103E-3
132 93 5.717197889348822E-3
132 94 5.967073365401693E-3
132 95 6.220953870141162E-3
132 96 6.478433944192542E-3
132 97 6.739078876126403E-3
132 98 7.002425462304573E-3
132 99 7.267982959054018E-3
132 100 7.535234228435287E-3
132 101 7.803637077389106E-3
132 102 8.072625788505754E-3
132 103 8.341612839080366E-3
132 104 8.609990803507927E-3
132 105 8.87713443244969E-3
132 106 9.142402900584164E-3
132 107 9.405142213157209E-3
132 108 9.664687759983982E-3
132 109 9.920367004047512E-3
132 110 1.0171502290401539E-2
132 111 1.0417413759735424E-2
132 112 1.0657422349712599E-2
132 113 1.0890852866066733E-2
132 114 1.1117037104445721E-2
132 115 1.1335317003146307E-2
132 116 1.1545047806193727E-2
132 117 1.174560121570136E-2
132 118 1.1936368512104304E-2
132 119 1.211676362070477E-2
132 120 1.2286226103001317E-2
132 121 1.2444224051501605E-2
132 122 1.2590256867140038E-2
132 123 1.2723857899036553E-2
132 124 1.2844596927137332E-2
132 125 1.2952082469266922E-2
132 126 1.3045963895286368E-2
132 127 1.3125933332383884E-2
132 128 1.3191727347011566E-2
132 129 1.3243128390610169E-2
132 130 1.3279965998018756E-2
132 131 1.33021177293305E-2
132 132 1.330950984791183E-2
132 133 1.33021177293305E-2
132 134 1.3279965998018756E-2
132 135 1.3243128390610169E-2
132 136 1.3191727347011566E-2
132 137 1.3125933332383884E-2
132 138 1.3045963895286368E-2
132 139 1.2952082469266922E-2
132 140 1.2844596927137332E-2
132 141 1.2723857899036553E-2
132 142 1.2590256867140038E-2
132 143 1.2444224051501605E-2
132 144 1.2286226103001317E-2
132 145 1.211676362070477E-2
132 146 1.1936368512104304E-2
132 147 1.174560121570136E-2
132 148 1.1545047806193727E-2
132 149 1.1335317003146307E-2
132 150 1.1117037104445721E-2
132 151 1.0890852866066733E-2
132 152 1.0657422349712599E-2
132 153 1.0417413759735424E-2
132 154 1.0171502290401539E-2
132 155 9.920367004047512E-3
132 156 9.664687759983982E-3
132 157 9.405142213157209E-3
132 158 9.142402900584164E-3
132 159 8.87713443244969E-3
132 160 8.609990803507927E-3
132 161 8.341612839080366E-3
132 162 8.072625788505754E-3
132 163 7.803637077389106E-3
132 164 7.535234228435287E-3
132 165 7.267982959054018E-3
132 166 7.002425462304573E-3
132 167 6.739078876126403E-3
132 168 6.478433944192542E-3
132 169 6.272407372308716E-3
132 170 6.0245416995049934E-3
132 171 5.781312901107039E-3
132 172 5.543154076427717E-3
132 173 5.3104723005333145E-3
132 174 5.083648609300444E-3
132 175 4.863038154338856E-3
132 176 4.648970518562467E-3
132 177 4.441750182107909E-3
132 178 4.241657127332772E-3
132 179 4.048947570778854E-3
132 180 3.863854809262231E-3
132 181 3.686590166654129E-3
132 182 3.5173440274448345E-3
132 183 3.356286942837401E-3
132 184 3.203570794897171E-3
132 185 3.059330004185097E-3
132 186 2.923682766324521E-3
132 187 2.7967323030885726E-3
132 188 2.678568113844415E-3
132 189 2.569267213546096E-3
132 190 2.4688953439242793E-3
132 191 2.3775081450727866E-3
132 192 2.2951522752724485E-3
132 193 2.221866467615715E-3
132 194 2.1576825127942543E-3
132 195 2.1026261582794375E-3
132 196 2.056717915055412E-3
132 197 2.019973764049351E-3
132 198 1.9924057554365606E-3
132 199 1.974022495072415E-3
132 200 1.9648295134116695E-3
133 34 5.746833410330014E-5
133 35 6.41150117582164E-5
133 36 7.145099732471724E-5
133 37 7.953793557242816E-5
133 38 8.844184310713185E-5
133 39 9.8233293538506E-5
133 40 1.0898759679241744E-4
133 41 1.2078497065307907E-4
133 42 1.3371070247100844E-4
133 43 1.478552988261544E-4
133 44 1.6331462079362345E-4
133 45 1.801900023241393E-4
133 46 1.9858834912484408E-4
133 47 2.186222153105597E-4
133 48 2.404098549935424E-4
133 49 2.64075245893548E-4
133 50 2.8974808198221224E-4
133 51 3.175637321289198E-4
133 52 3.4766316169206583E-4
133 53 3.801928140025063E-4
133 54 4.153044487175457E-4
133 55 4.531549340864822E-4
133 56 4.939059902648149E-4
133 57 5.377238809458774E-4
133 58 5.847790507477894E-4
133 59 6.352457060019391E-4
133 60 6.893013368380249E-4
133 61 7.471261787510978E-4
133 62 8.089026121686099E-4
133 63 8.748144989104668E-4
133 64 9.450464548521614E-4
133 65 1.0197830585595082E-3
133 66 1.0992079961619481E-3
133 67 1.183503143267951E-3
133 68 1.2728475852982531E-3
133 69 1.367416578217387E-3
133 70 1.4673804522774983E-3
133 71 1.5729034620464647E-3
133 72 1.6841425866698377E-3
133 73 1.8012462850076334E-3
133 74 1.9243532109863046E-3
133 75 2.0535908952067335E-3
133 76 2.1890743995435897E-3
133 77 2.330904952152349E-3
133 78 2.4791685709596527E-3
133 79 2.633934684342309E-3
133 80 2.795254758291549E-3
133 81 2.9631609399036283E-3
133 82 3.1376647275268414E-3
133 83 3.3187556783199905E-3
133 84 3.5064001643299895E-3
133 85 3.7005401884686075E-3
133 86 3.901092271952699E-3
133 87 4.107946424861764E-3
133 88 4.32096521145483E-3
133 89 4.53998292177005E-3
133 90 4.76480486080035E-3
133 91 4.995206766193312E-3
133 92 5.230934364960887E-3
133 93 5.471703079103E-3
133 94 5.717197889348822E-3
133 95 5.967073365401693E-3
133 96 6.220953870141162E-3
133 97 6.478433944192542E-3
133 98 6.739078876126403E-3
133 99 7.002425462304573E-3
133 100 7.267982959054018E-3
133 101 7.535234228435287E-3
133 102 7.803637077389106E-3
133 103 8.072625788505754E-3
133 104 8.341612839080366E-3
133 105 8.609990803507927E-3
133 106 8.87713443244969E-3
133 107 9.142402900584164E-3
133 108 9.405142213157209E-3
133 109 9.664687759983982E-3
133 110 9.920367004047512E-3
133 111 1.0171502290401539E-2
133 112 1.0417413759735424E-2
133 113 1.0657422349712599E-2
133 114 1.0890852866066733E-2
133 115 1.1117037104445721E-2
133 116 1.1335317003146307E-2
133 117 1.1545047806193727E-2
133 118 1.174560121570136E-2
133 119 1.1936368512104304E-2
133 120 1.211676362070477E-2
133 121 1.2286226103001317E-2
133 122 1.2444224051501605E-2
133 123 1.2590256867140038E-2
133 124 1.2723857899036553E-2
133 125 1.2844596927137332E-2
133 126 1.2952082469266922E-2
133 127 1.3045963895286368E-2
133 128 1.3125933332383884E-2
133 129 1.3191727347011566E-2
133 130 1.3243128390610169E-2
133 131 1.3279965998018756E-2
133 132 1.33021177293305E-2
133 133 1.330950984791183E-2
133 134 1.33021177293305E-2
133 135 1.3279965998018756E-2
133 136 1.3243128390610169E-2
133 137 1.3191727347011566E-2
133 138 1.3125933332383884E-2
133 139 1.3045963895286368E-2
133 140 1.2952082469266922E-2
133 141 1.2844596927137332E-2
133 142 1.2723857899036553E-2
133 143 1.2590256867140038E-2
133 144 1.2444224051501605E-2
133 145 1.2286226103001317E-2
133 146 1.211676362070477E-2
133 147 1.1936368512104304E-2
133 148 1.174560121570136E-2
133 149 1.1545047806193727E-2
133 150 1.1335317003146307E-2
133 151 1.1117037104445721E-2
133 152 1.0890852866066733E-2
133 153 1.0657422349712599E-2
133 154 1.0417413759735424E-2
133 155 1.0171502290401539E-2
133 156 9.920367004047512E-3
133 157 9.664687759983982E-3
133 158 9.405142213157209E-3
133 159 9.142402900584164E-3
133 160 8.87713443244969E-3
133 161 8.609990803507927E-3
133 162 8.341612839080366E-3
133 163 8.072625788505754E-3
133 164 7.803637077389106E-3
133 165 7.535234228435287E-3
133 166 7.267982959054018E-3
133 167 7.002425462304573E-3
133 168 6.790532378293957E-3
133 169 6.535902278295843E-3
133 170 6.285068881899379E-3
133 171 6.0385243627264105E-3
133 172 5.79673582492125E-3
133 173 5.5601449222101315E-3
133 174 5.329167658499392E-3
133 175 5.104194362985729E-3
133 176 4.88558983145343E-3
133 177 4.673693624241058E-3
133 178 4.468820510280984E-3
133 179 4.271261045655388E-3
133 180 4.0812822742768385E-3
133 181 3.8991285375934515E-3
133 182 3.725022379640549E-3
133 183 3.559165533313533E-3
133 184 3.4017399734203894E-3
133 185 3.2529090218858404E-3
133 186 3.112818490420469E-3
133 187 2.981597846034375E-3
133 188 2.859361384962159E-3
133 189 2.746209400869895E-3
133 190 2.6422293336300718E-3
133 191 2.5474968854715483E-3
133 192 2.462077091932182E-3
133 193 2.386025335755423E-3
133 194 2.319388292671777E-3
133 195 2.2622047988844897E-3
133 196 2.2145066310285963E-3
133 197 2.176319190385997E-3
133 198 2.1476620842087197E-3
133 199 2.1285495981201124E-3
133 200 2.1189910547214563E-3
134 35 5.746833410330014E-5
134 36 6.41150117582164E-5
134 37 7.145099732471724E-5
134 38 7.953793557242816E-5
134 39 8.844184310713185E-5
134 40 9.8233293538506E-5
134 41 1.0898759679241744E-4
134 42 1.2078497065307907E-4
134 43 1.3371070247100844E-4
134 44 1.478552988261544E-4
134 45 1.6331462079362345E-4
134 46 1.801900023241393E-4
134 47 1.9858834912484408E-4
134 48 2.186222153105597E-4
134 49 2.404098549935424E-4
134 50 2.64075245893548E-4
134 51 2.8974808198221224E-4
134 52 3.175637321289198E-4
134 53 3.4766316169206583E-4
134 54 3.801928140025063E-4
134 55 4.153044487175457E-4
134 56 4.531549340864822E-4
134 57 4.939059902648149E-4
134 58 5.377238809458774E-4
134 59 5.847790507477894E-4
134 60 6.352457060019391E-4
134 61 6.893013368380249E-4
134 62 7.471261787510978E-4
134 63 8.089026121686099E-4
134 64 8.748144989104668E-4
134 65 9.450464548521614E-4
134 66 1.0197830585595082E-3
134 67 1.0992079961619481E-3
134 68 1.183503143267951E-3
134 69 1.2728475852982531E-3
134 70 1.367416578217387E-3
134 71 1.4673804522774983E-3
134 72 1.5729034620464647E-3
134 73 1.6841425866698377E-3
134 74 1.8012462850076334E-3
134 75 1.9243532109863046E-3
134 76 2.0535908952067335E-3
134 77 2.1890743995435897E-3
134 78 2.330904952152349E-3
134 79 2.4791685709596527E-3
134 80 2.633934684342309E-3
134 81 2.795254758291549E-3
134 82 2.9631609399036283E-3
134 83 3.1376647275268414E-3
134 84 3.3187556783199905E-3
134 85 3.5064001643299895E-3
134 86 3.7005401884686075E-3
134 87 3.901092271952699E-3
134 88 4.107946424861764E-3
134 89 4.32096521145483E-3
134 90 4.53998292177005E-3
134 91 4.76480486080035E-3
134 92 4.995206766193312E-3
134 93 5.230934364960887E-3
134 94 5.471703079103E-3
134 95 5.717197889348822E-3
134 96 5.967073365401693E-3
134 97 6.220953870141162E-3
134 98 6.478433944192542E-3
134 99 6.739078876126403E-3
134 100 7.002425462304573E-3
134 101 7.267982959054018E-3
134 102 7.535234228435287E-3
134 103 7.803637077389106E-3
134 104 8.072625788505754E-3
134 105 8.341612839080366E-3
134 106 8.609990803507927E-3
134 107 8.87713443244969E-3
134 108 9.142402900584164E-3
134 109 9.405142213157209E-3
134 110 9.664687759983982E-3
134 111 9.920367004047512E-3
134 112 1.0171502290401539E-2
134 113 1.0417413759735424E-2
134 114 1.0657422349712599E-2
134 115 1.0890852866066733E-2
134 116 1.1117037104445721E-2
134 117 1.1335317003146307E-2
134 118 1.1545047806193727E-2
134 119 1.174560121570136E-2
134 120 1.1936368512104304E-2
134 121 1.211676362070477E-2
134 122 1.2286226103001317E-2
134 123 1.2444224051501605E-2
134 124 1.2590256867140038E-2
134 125 1.2723857899036553E-2
134 126 1.2844596927137332E-2
134 127 1.2952082469266922E-2
134 128 1.3045963895286368E-2
134 129 1.3125933332383884E-2
134 130 1.3191727347011566E-2
134 131 1.3243128390610169E-2
134 132 1.3279965998018756E-2
134 133 1.33021177293305E-2
134 134 1.330950984791183E-2
134 135 1.33021177293305E-2
134 136 1.3279965998018756E-2
134 137 1.3243128390610169E-2
134 138 1.3191727347011566E-2
134 139 1.3125933332383884E-2
134 140 1.3045963895286368E-2
134 141 1.2952082469266922E-2
134 142 1.2844596927137332E-2
134 143 1.2723857899036553E-2
134 144 1.2590256867140038E-2
134 145 1.2444224051501605E-2
134 146 1.2286226103001317E-2
134 147 1.211676362070477E-2
134 148 1.1936368512104304E-2
134 149 1.174560121570136E-2
134 150 1.1545047806193727E-2
134 151 1.1335317003146307E-2
134 152 1.1117037104445721E-2
134 153 1.0890852866066733E-2
134 154 1.0657422349712599E-2
134 155 1.0417413759735424E-2
134 156 1.0171502290401539E-2
134 157 9.920367004047512E-3
134 158 9.664687759983982E-3
134 159 9.405142213157209E-3
134 160 9.142402900584164E-3
134 161 8.87713443244969E-3
134 162 8.609990803507927E-3
134 163 8.341612839080366E-3
134 164 8.072625788505754E-3
134 165 7.803637077389106E-3
134 166 7.535234228435287E-3
134 167 7.319436461221572E-3
134 168 7.059893796407873E-3
134 169 6.80319388788462E-3
134 170 6.54988494151726E-3
134 171 6.30049180571359E-3
134 172 6.055515208508825E-3
134 173 5.815431182887328E-3
134 174 5.580690675895417E-3
134 175 5.351719335613966E-3
134 176 5.128917468664321E-3
134 177 4.912660159626505E-3
134 178 4.703297542563673E-3
134 179 4.501155213778969E-3
134 180 4.306534773986608E-3
134 181 4.119714487263259E-3
134 182 3.94095004346215E-3
134 183 3.7704754102235376E-3
134 184 3.6085037603022026E-3
134 185 3.4552284596557612E-3
134 186 3.310824101595694E-3
134 187 3.175447572294055E-3
134 188 3.049239133059855E-3
134 189 2.932323505046135E-3
134 190 2.824810942417164E-3
134 191 2.726798280489467E-3
134 192 2.638369945954523E-3
134 193 2.5595989169882438E-3
134 194 2.4905476218456584E-3
134 195 2.4312687654209353E-3
134 196 2.3818060742150744E-3
134 197 2.342194951187965E-3
134 198 2.3124630330695482E-3
134 199 2.2926306438577613E-3
134 200 2.282711139429899E-3
135 36 5.746833410330014E-5
135 37 6.41150117582164E-5
135 38 7.145099732471724E-5
135 39 7.953793557242816E-5
135 40 8.844184310713185E-5
135 41 9.8233293538506E-5
135 42 1.0898759679241744E-4
135 43 1.2078497065307907E-4
135 44 1.3371070247100844E-4
135 45 1.478552988261544E-4
135 46 1.6331462079362345E-4
135 47 1.801900023241393E-4
135 48 1.9858834912484408E-4
135 49 2.186222153105597E-4
135 50 2.404098549935424E-4
135 51 2.64075245893548E-4
135 52 2.8974808198221224E-4
135 53 3.175637321289198E-4
135 54 3.4766316169206583E-4
135 55 3.801928140025063E-4
135 56 4.153044487175457E-4
135 57 4.531549340864822E-4
135 58 4.939059902648149E-4
135 59 5.377238809458774E-4
135 60 5.847790507477894E-4
135 61 6.352457060019391E-4
135 62 6.893013368380249E-4
135 63 7.471261787510978E-4
135 64 8.089026121686099E-4
135 65 8.748144989104668E-4
135 66 9.450464548521614E-4
135 67 1.0197830585595082E-3
135 68 1.0992079961619481E-3
135 69 1.183503143267951E-3
135 70 1.2728475852982531E-3
135 71 1.367416578217387E-3
135 72 1.4673804522774983E-3
135 73 1.5729034620464647E-3
135 74 1.6841425866698377E-3
135 75 1.8012462850076334E-3
135 76 1.9243532109863046E-3
135 77 2.0535908952067335E-3
135 78 2.1890743995435897E-3
135 79 2.330904952152349E-3
135 80 2.4791685709596527E-3
135 81 2.633934684342309E-3
135 82 2.795254758291549E-3
135 83 2.9631609399036283E-3
135 84 3.1376647275268414E-3
135 85 3.3187556783199905E-3
135 86 3.5064001643299895E-3
135 87 3.7005401884686075E-3
135 88 3.901092271952699E-3
135 89 4.107946424861764E-3
135 90 4.32096521145483E-3
135 91 4.53998292177005E-3
135 92 4.76480486080035E-3
135 93 4.995206766193312E-3
135 94 5.230934364960887E-3
135 95 5.471703079103E-3
135 96 5.717197889348822E-3
135 97 5.967073365401693E-3
135 98 6.220953870141162E-3
135 99 6.478433944192542E-3
135 100 6.739078876126403E-3
135 101 7.002425462304573E-3
135 102 7.267982959054018E-3
135 103 7.535234228435287E-3
135 104 7.803637077389106E-3
135 105 8.072625788505754E-3
135 106 8.341612839080366E-3
135 107 8.609990803507927E-3
135 108 8.87713443244969E-3
135 109 9.142402900584164E-3
135 110 9.405142213157209E-3
135 111 9.664687759983982E-3
135 112 9.920367004047512E-3
135 113 1.0171502290401539E-2
135 114 1.0417413759735424E-2
135 115 1.0657422349712599E-2
135 116 1.0890852866066733E-2
135 117 1.1117037104445721E-2
135 118 1.1335317003146307E-2
135 119 1.1545047806193727E-2
135 120 1.174560121570136E-2
135 121 1.1936368512104304E-2
135 122 1.211676362070477E-2
135 123 1.2286226103001317E-2
135 124 1.2444224051501605E-2
135 125 1.2590256867140038E-2
135 126 1.2723857899036553E-2
135 127 1.2844596927137332E-2
135 128 1.2952082469266922E-2
135 129 1.3045963895286368E-2
135 130 1.3125933332383884E-2
135 131 1.3191727347011566E-2
135 132 1.3243128390610169E-2
135 133 1.3279965998018756E-2
135 134 1.33021177293305E-2
135 135 1.330950984791183E-2
135 136 1.33021177293305E-2
135 137 1.3279965998018756E-2
135 138 1.3243128390610169E-2
135 139 1.3191727347011566E-2
135 140 1.3125933332383884E-2
135 141 1.3045963895286368E-2
135 142 1.2952082469266922E-2
135 143 1.2844596927137332E-2
135 144 1.2723857899036553E-2
135 145 1.2590256867140038E-2
135 146 1.2444224051501605E-2
135 147 1.2286226103001317E-2
135 148 1.211676362070477E-2
135 149 1.1936368512104304E-2
135 150 1.174560121570136E-2
135 151 1.1545047806193727E-2
135 152 1.1335317003146307E-2
135 153 1.1117037104445721E-2
135 154 1.0890852866066733E-2
135 155 1.0657422349712599E-2
135 156 1.0417413759735424E-2
135 157 1.0171502290401539E-2
135 158 9.920367004047512E-3
135 159 9.664687759983982E-3
135 160 9.405142213157209E-3
135 161 9.142402900584164E-3
135 162 8.87713443244969E-3
135 163 8.609990803507927E-3
135 164 8.341612839080366E-3
135 165 8.072625788505754E-3
135 166 7.85509057955666E-3
135 167 7.5927025625385875E-3
135 168 7.3320979708122345E-3
135 169 7.07387645962929E-3
135 170 6.818616811698831E-3
135 171 6.566875787299674E-3
135 172 6.3191871636796675E-3
135 173 6.07606096219411E-3
135 174 5.8379828600019015E-3
135 175 5.605413781574009E-3
135 176 5.378789663787041E-3
135 177 5.158521386986936E-3
135 178 4.94499486312449E-3
135 179 4.738571270894894E-3
135 180 4.53958742676539E-3
135 181 4.348356279855307E-3
135 182 4.165167517846247E-3
135 183 3.9902882704508195E-3
135 184 3.8239638964589094E-3
135 185 3.6664188400120563E-3
135 186 3.5178575415293475E-3
135 187 3.378465388621174E-3
135 188 3.248409692378031E-3
135 189 3.127840674607124E-3
135 190 3.01689245190553E-3
135 191 2.9156840029001384E-3
135 192 2.824320105545529E-3
135 193 2.7428922320447587E-3
135 194 2.671479389737402E-3
135 195 2.6101488971762435E-3
135 196 2.5589570855803047E-3
135 197 2.5179499168986263E-3
135 198 2.4871635108370065E-3
135 199 2.466624574379335E-3
135 200 2.4563507285662043E-3
136 37 5.746833410330014E-5
136 38 6.41150117582164E-5
136 39 7.145099732471724E-5
136 40 7.953793557242816E-5
136 41 8.844184310713185E-5
136 42 9.8233293538506E-5
136 43 1.0898759679241744E-4
136 44 1.2078497065307907E-4
136 45 1.3371070247100844E-4
136 46 1.478552988261544E-4
136 47 1.6331462079362345E-4
136 48 1.801900023241393E-4
136 49 1.9858834912484408E-4
136 50 2.186222153105597E-4
136 51 2.404098549935424E-4
136 52 2.64075245893548E-4
136 53 2.8974808198221224E-4
136 54 3.175637321289198E-4
136 55 3.4766316169206583E-4
136 56 3.801928140025063E-4
136 57 4.153044487175457E-4
136 58 4.531549340864822E-4
136 59 4.939059902648149E-4
136 60 5.377238809458774E-4
136 61 5.847790507477894E-4
136 62 6.352457060019391E-4
136 63 6.893013368380249E-4
136 64 7.471261787510978E-4
136 65 8.089026121686099E-4
136 66 8.748144989104668E-4
136 67 9.450464548521614E-4
136 68 1.0197830585595082E-3
136 69 1.0992079961619481E-3
136 70 1.183503143267951E-3
136 71 1.2728475852982531E-3
136 72 1.367416578217387E-3
136 73 1.4673804522774983E-3
136 74 1.5729034620464647E-3
136 75 1.6841425866698377E-3
136 76 1.8012462850076334E-3
136 77 1.9243532109863046E-3
136 78 2.0535908952067335E-3
136 79 2.1890743995435897E-3
136 80 2.330904952152349E-3
136 81 2.4791685709596527E-3
136 82 2.633934684342309E-3
136 83 2.795254758291549E-3
136 84 2.9631609399036283E-3
136 85 3.1376647275268414E-3
136 86 3.3187556783199905E-3
136 87 3.5064001643299895E-3
136 88 3.7005401884686075E-3
136 89 3.901092271952699E-3
136 90 4.107946424861764E-3
136 91 4.32096521145483E-3
136 92 4.53998292177005E-3
136 93 4.76480486080035E-3
136 94 4.995206766193312E-3
136 95 5.230934364960887E-3
136 96 5.471703079103E-3
136 97 5.717197889348822E-3
136 98 5.967073365401693E-3
136 99 6.220953870141162E-3
136 100 6.478433944192542E-3
136 101 6.739078876126403E-3
136 102 7.002425462304573E-3
136 103 7.267982959054018E-3
136 104 7.535234228435287E-3
136 105 7.803637077389106E-3
136 106 8.072625788505754E-3
136 107 8.341612839080366E-3
136 108 8.609990803507927E-3
136 109 8.87713443244969E-3
136 110 9.142402900584164E-3
136 111 9.405142213157209E-3
136 112 9.664687759983982E-3
136 113 9.920367004047512E-3
136 114 1.0171502290401539E-2
136 115 1.0417413759735424E-2
136 116 1.0657422349712599E-2
136 117 1.0890852866066733E-2
136 118 1.1117037104445721E-2
136 119 1.1335317003146307E-2
136 120 1.1545047806193727E-2
136 121 1.174560121570136E-2
136 122 1.1936368512104304E-2
136 123 1.211676362070477E-2
136 124 1.2286226103001317E-2
136 125 1.2444224051501605E-2
136 126 1.2590256867140038E-2
136 127 1.2723857899036553E-2
136 128 1.2844596927137332E-2
136 129 1.2952082469266922E-2
136 130 1.3045963895286368E-2
136 131 1.3125933332383884E-2
136 132 1.3191727347011566E-2
136 133 1.3243128390610169E-2
136 134 1.3279965998018756E-2
136 135 1.33021177293305E-2
136 136 1.330950984791183E-2
136 137 1.33021177293305E-2
136 138 1.3279965998018756E-2
136 139 1.3243128390610169E-2
136 140 1.3191727347011566E-2
136 141 1.3125933332383884E-2
136 142 1.3045963895286368E-2
136 143 1.2952082469266922E-2
136 144 1.2844596927137332E-2
136 145 1.2723857899036553E-2
136 146 1.2590256867140038E-2
136 147 1.2444224051501605E-2
136 148 1.2286226103001317E-2
136 149 1.211676362070477E-2
136 150 1.1936368512104304E-2
136 151 1.174560121570136E-2
136 152 1.1545047806193727E-2
136 153 1.1335317003146307E-2
136 154 1.1117037104445721E-2
136 155 1.0890852866066733E-2
136 156 1.0657422349712599E-2
136 157 1.0417413759735424E-2
136 158 1.0171502290401539E-2
136 159 9.920367004047512E-3
136 160 9.664687759983982E-3
136 161 9.405142213157209E-3
136 162 9.142402900584164E-3
136 163 8.87713443244969E-3
136 164 8.609990803507927E-3
136 165 8.39306634124792E-3
136 166 8.130094122609054E-3
136 167 7.867752089147322E-3
136 168 7.606685225760005E-3
136 169 7.347520894626446E-3
136 170 7.0908673054117044E-3
136 171 6.837312169664909E-3
136 172 6.5874215409849595E-3
136 173 6.341738840794241E-3
136 174 6.100784067872702E-3
136 175 5.865053188174977E-3
136 176 5.635017699896623E-3
136 177 5.411124367285026E-3
136 178 5.193795115318156E-3
136 179 4.9834270761109105E-3
136 180 4.780392776763592E-3
136 181 4.585040457348377E-3
136 182 4.397694506843976E-3
136 183 4.218656004081619E-3
136 184 4.048203350160673E-3
136 185 3.8865929783324957E-3
136 186 3.7340601270375363E-3
136 187 3.5908196616133235E-3
136 188 3.457066930168443E-3
136 189 3.3329786392374263E-3
136 190 3.2187137350900984E-3
136 191 3.114414276961592E-3
136 192 3.0202062889903743E-3
136 193 2.9362005782946872E-3
136 194 2.8624935073753434E-3
136 195 2.7991677098967715E-3
136 196 2.746292739859795E-3
136 197 2.703925645229346E-3
136 198 2.6721114582084126E-3
136 199 2.6508835955454495E-3
136 200 2.64026416351564E-3
137 38 5.746833410330014E-5
137 39 6.41150117582164E-5
137 40 7.145099732471724E-5
137 41 7.953793557242816E-5
137 42 8.844184310713185E-5
137 43 9.8233293538506E-5
137 44 1.0898759679241744E-4
137 45 1.2078497065307907E-4
137 46 1.3371070247100844E-4
137 47 1.478552988261544E-4
137 48 1.6331462079362345E-4
137 49 1.801900023241393E-4
137 50 1.9858834912484408E-4
137 51 2.186222153105597E-4
137 52 2.404098549935424E-4
137 53 2.64075245893548E-4
137 54 2.8974808198221224E-4
137 55 3.175637321289198E-4
137 56 3.4766316169206583E-4
137 57 3.801928140025063E-4
137 58 4.153044487175457E-4
137 59 4.531549340864822E-4
137 60 4.939059902648149E-4
137 61 5.377238809458774E-4
137 62 5.847790507477894E-4
137 63 6.352457060019391E-4
137 64 6.893013368380249E-4
137 65 7.471261787510978E-4
137 66 8.089026121686099E-4
137 67 8.748144989104668E-4
137 68 9.450464548521614E-4
137 69 1.0197830585595082E-3
137 70 1.0992079961619481E-3
137 71 1.183503143267951E-3
137 72 1.2728475852982531E-3
137 73 1.367416578217387E-3
137 74 1.4673804522774983E-3
137 75 1.5729034620464647E-3
137 76 1.6841425866698377E-3
137 77 1.8012462850076334E-3
137 78 1.9243532109863046E-3
137 79 2.0535908952067335E-3
137 80 2.1890743995435897E-3
137 81 2.330904952152349E-3
137 82 2.4791685709596527E-3
137 83 2.633934684342309E-3
137 84 2.795254758291549E-3
137 85 2.9631609399036283E-3
137 86 3.1376647275268414E-3
137 87 3.3187556783199905E-3
137 88 3.5064001643299895E-3
137 89 3.7005401884686075E-3
137 90 3.901092271952699E-3
137 91 4.107946424861764E-3
137 92 4.32096521145483E-3
137 93 4.53998292177005E-3
137 94 4.76480486080035E-3
137 95 4.995206766193312E-3
137 96 5.230934364960887E-3
137 97 5.471703079103E-3
137 98 5.717197889348822E-3
137 99 5.967073365401693E-3
137 100 6.220953870141162E-3
137 101 6.478433944192542E-3
137 102 6.739078876126403E-3
137 103 7.002425462304573E-3
137 104 7.267982959054018E-3
137 105 7.535234228435287E-3
137 106 7.803637077389106E-3
137 107 8.072625788505754E-3
137 108 8.341612839080366E-3
137 109 8.609990803507927E-3
137 110 8.87713443244969E-3
137 111 9.142402900584164E-3
137 112 9.405142213157209E-3
137 113 9.664687759983982E-3
137 114 9.920367004047512E-3
137 115 1.0171502290401539E-2
137 116 1.0417413759735424E-2
137 117 1.0657422349712599E-2
137 118 1.0890852866066733E-2
137 119 1.1117037104445721E-2
137 120 1.1335317003146307E-2
137 121 1.1545047806193727E-2
137 122 1.174560121570136E-2
137 123 1.1936368512104304E-2
137 124 1.211676362070477E-2
137 125 1.2286226103001317E-2
137 126 1.2444224051501605E-2
137 127 1.2590256867140038E-2
137 128 1.2723857899036553E-2
137 129 1.2844596927137332E-2
137 130 1.2952082469266922E-2
137 131 1.3045963895286368E-2
137 132 1.3125933332383884E-2
137 133 1.3191727347011566E-2
137 134 1.3243128390610169E-2
137 135 1.3279965998018756E-2
137 136 1.33021177293305E-2
137 137 1.330950984791183E-2
137 138 1.33021177293305E-2
137 139 1.3279965998018756E-2
137 140 1.3243128390610169E-2
137 141 1.3191727347011566E-2
137 142 1.3125933332383884E-2
137 143 1.3045963895286368E-2
137 144 1.2952082469266922E-2
137 145 1.2844596927137332E-2
137 146 1.2723857899036553E-2
137 147 1.2590256867140038E-2
137 148 1.2444224051501605E-2
137 149 1.2286226103001317E-2
137 150 1.211676362070477E-2
137 151 1.1936368512104304E-2
137 152 1.174560121570136E-2
137 153 1.1545047806193727E-2
137 154 1.1335317003146307E-2
137 155 1.1117037104445721E-2
137 156 1.0890852866066733E-2
137 157 1.0657422349712599E-2
137 158 1.0417413759735424E-2
137 159 1.0171502290401539E-2
137 160 9.920367004047512E-3
137 161 9.664687759983982E-3
137 162 9.405142213157209E-3
137 163 9.142402900584164E-3
137 164 8.928587934617245E-3
137 165 8.667459137611227E-3
137 166 8.405727850838582E-3
137 167 8.14407678583047E-3
137 168 7.883175012961534E-3
137 169 7.623676071542419E-3
137 170 7.366216252592523E-3
137 171 7.11141305909699E-3
137 172 6.859863846779482E-3
137 173 6.612144646663551E-3
137 174 6.368809168967316E-3
137 175 6.1303879861953165E-3
137 176 5.897387891672962E-3
137 177 5.670291428227844E-3
137 178 5.449556580271447E-3
137 179 5.235616621186855E-3
137 180 5.028880106693898E-3
137 181 4.829731003752262E-3
137 182 4.63852894358375E-3
137 183 4.45560958655383E-3
137 184 4.281285085955206E-3
137 185 4.115844637186153E-3
137 186 3.959555098416472E-3
137 187 3.8126616685848053E-3
137 188 3.6753886084727187E-3
137 189 3.5479399906514176E-3
137 190 3.430500464293488E-3
137 191 3.3232360211803338E-3
137 192 3.2262947497107503E-3
137 193 3.139807564320959E-3
137 194 3.0638888984540567E-3
137 195 2.998637350058895E-3
137 196 2.9441362695458127E-3
137 197 2.9004542811695818E-3
137 198 2.8676457299377884E-3
137 199 2.845751047344718E-3
137 200 2.8347970304948853E-3
138 39 5.746833410330014E-5
138 40 6.41150117582164E-5
138 41 7.145099732471724E-5
138 42 7.953793557242816E-5
138 43 8.844184310713185E-5
138 44 9.8233293538506E-5
138 45 1.0898759679241744E-4
138 46 1.2078497065307907E-4
138 47 1.3371070247100844E-4
138 48 1.478552988261544E-4
138 49 1.6331462079362345E-4
138 50 1.801900023241393E-4
138 51 1.9858834912484408E-4
138 52 2.186222153105597E-4
138 53 2.404098549935424E-4
138 54 2.64075245893548E-4
138 55 2.8974808198221224E-4
138 56 3.175637321289198E-4
138 57 3.4766316169206583E-4
138 58 3.801928140025063E-4
138 59 4.153044487175457E-4
138 60 4.531549340864822E-4
138 61 4.939059902648149E-4
138 62 5.377238809458774E-4
138 63 5.847790507477894E-4
138 64 6.352457060019391E-4
138 65 6.893013368380249E-4
138 66 7.471261787510978E-4
138 67 8.089026121686099E-4
138 68 8.748144989104668E-4
138 69 9.450464548521614E-4
138 70 1.0197830585595082E-3
138 71 1.0992079961619481E-3
138 72 1.183503143267951E-3
138 73 1.2728475852982531E-3
138 74 1.367416578217387E-3
138 75 1.4673804522774983E-3
138 76 1.5729034620464647E-3
138 77 1.6841425866698377E-3
138 78 1.8012462850076334E-3
138 79 1.9243532109863046E-3
138 80 2.0535908952067335E-3
138 81 2.1890743995435897E-3
138 82 2.330904952152349E-3
138 83 2.4791685709596527E-3
138 84 2.633934684342309E-3
138 85 2.795254758291549E-3
138 86 2.9631609399036283E-3
138 87 3.1376647275268414E-3
138 88 3.3187556783199905E-3
138 89 3.5064001643299895E-3
138 90 3.7005401884686075E-3
138 91 3.901092271952699E-3
138 92 4.107946424861764E-3
138 93 4.32096521145483E-3
138 94 4.53998292177005E-3
138 95 4.76480486080035E-3
138 96 4.995206766193312E-3
138 97 5.230934364960887E-3
138 98 5.471703079103E-3
138 99 5.717197889348822E-3
138 100 5.967073365401693E-3
138 101 6.220953870141162E-3
138 102 6.478433944192542E-3
138 103 6.739078876126403E-3
138 104 7.002425462304573E-3
138 105 7.267982959054018E-3
138 106 7.535234228435287E-3
138 107 7.803637077389106E-3
138 108 8.072625788505754E-3
138 109 8.341612839080366E-3
138 110 8.609990803507927E-3
138 111 8.87713443244969E-3
138 112 9.142402900584164E-3
138 113 9.405142213157209E-3
138 114 9.664687759983982E-3
138 115 9.920367004047512E-3
138 116 1.0171502290401539E-2
138 117 1.0417413759735424E-2
138 118 1.0657422349712599E-2
138 119 1.0890852866066733E-2
138 120 1.1117037104445721E-2
138 121 1.1335317003146307E-2
138 122 1.1545047806193727E-2
138 123 1.174560121570136E-2
138 124 1.1936368512104304E-2
138 125 1.211676362070477E-2
138 126 1.2286226103001317E-2
138 127 1.2444224051501605E-2
138 128 1.2590256867140038E-2
138 129 1.2723857899036553E-2
138 130 1.2844596927137332E-2
138 131 1.2952082469266922E-2
138 132 1.3045963895286368E-2
138 133 1.3125933332383884E-2
138 134 1.3191727347011566E-2
138 135 1.3243128390610169E-2
138 136 1.3279965998018756E-2
138 137 1.33021177293305E-2
138 138 1.330950984791183E-2
138 139 1.33021177293305E-2
138 140 1.3279965998018756E-2
138 141 1.3243128390610169E-2
138 142 1.3191727347011566E-2
138 143 1.3125933332383884E-2
138 144 1.3045963895286368E-2
138 145 1.2952082469266922E-2
138 146 1.2844596927137332E-2
138 147 1.2723857899036553E-2
138 148 1.2590256867140038E-2
138 149 1.2444224051501605E-2
138 150 1.2286226103001317E-2
138 151 1.211676362070477E-2
138 152 1.1936368512104304E-2
138 153 1.174560121570136E-2
138 154 1.1545047806193727E-2
138 155 1.1335317003146307E-2
138 156 1.1117037104445721E-2
138 157 1.0890852866066733E-2
138 158 1.0657422349712599E-2
138 159 1.0417413759735424E-2
138 160 1.0171502290401539E-2
138 161 9.920367004047512E-3
138 162 9.664687759983982E-3
138 163 9.456595715324763E-3
138 164 9.199871234687464E-3
138 165 8.941249444207907E-3
138 166 8.681441800832643E-3
138 167 8.421150774652794E-3
138 168 8.161067631612886E-3
138 169 7.901870370927612E-3
138 170 7.644221825227704E-3
138 171 7.388767929707097E-3
138 172 7.136136164775582E-3
138 173 6.886934174952558E-3
138 174 6.641748564986166E-3
138 175 6.401143872465301E-3
138 176 6.165661714526537E-3
138 177 5.935820104659382E-3
138 178 5.712112934096542E-3
138 179 5.495009610854434E-3
138 180 5.284954848175524E-3
138 181 5.08236859292927E-3
138 182 4.8876460834621155E-3
138 183 4.701158025457336E-3
138 184 4.52325087357931E-3
138 185 4.354247206039182E-3
138 186 4.194446178733422E-3
138 187 4.044124045275867E-3
138 188 3.90353472906778E-3
138 189 3.7729104335287806E-3
138 190 3.6524622767416534E-3
138 191 3.542380937042647E-3
138 192 3.442837296510919E-3
138 193 3.3539830698701197E-3
138 194 3.2759514070045104E-3
138 195 3.208857458103098E-3
138 196 3.1527988913686816E-3
138 197 3.1078563542542553E-3
138 198 3.0740938703058864E-3
138 199 3.0515591648872247E-3
138 200 3.0402839143239633E-3
139 40 5.746833410330014E-5
139 41 6.41150117582164E-5
139 42 7.145099732471724E-5
139 43 7.953793557242816E-5
139 44 8.844184310713185E-5
139 45 9.8233293538506E-5
139 46 1.0898759679241744E-4
139 47 1.2078497065307907E-4
139 48 1.3371070247100844E-4
139 49 1.478552988261544E-4
139 50 1.6331462079362345E-4
139 51 1.801900023241393E-4
139 52 1.9858834912484408E-4
139 53 2.186222153105597E-4
139 54 2.404098549935424E-4
139 55 2.64075245893548E-4
139 56 2.8974808198221224E-4
139 57 3.175637321289198E-4
139 58 3.4766316169206583E-4
139 59 3.801928140025063E-4
139 60 4.153044487175457E-4
139 61 4.531549340864822E-4
139 62 4.939059902648149E-4
139 63 5.377238809458774E-4
139 64 5.847790507477894E-4
139 65 6.352457060019391E-4
139 66 6.893013368380249E-4
139 67 7.471261787510978E-4
139 68 8.089026121686099E-4
139 69 8.748144989104668E-4
139 70 9.450464548521614E-4
139 71 1.0197830585595082E-3
139 72 1.0992079961619481E-3
139 73 1.183503143267951E-3
139 74 1.2728475852982531E-3
139 75 1.367416578217387E-3
139 76 1.4673804522774983E-3
139 77 1.5729034620464647E-3
139 78 1.6841425866698377E-3
139 79 1.8012462850076334E-3
139 80 1.9243532109863046E-3
139 81 2.0535908952067335E-3
139 82 2.1890743995435897E-3
139 83 2.330904952152349E-3
139 84 2.4791685709596527E-3
139 85 2.633934684342309E-3
139 86 2.795254758291549E-3
139 87 2.9631609399036283E-3
139 88 3.1376647275268414E-3
139 89 3.3187556783199905E-3
139 90 3.5064001643299895E-3
139 91 3.7005401884686075E-3
139 92 3.901092271952699E-3
139 93 4.107946424861764E-3
139 94 4.32096521145483E-3
139 95 4.53998292177005E-3
139 96 4.76480486080035E-3
139 97 4.995206766193312E-3
139 98 5.230934364960887E-3
139 99 5.471703079103E-3
139 100 5.717197889348822E-3
139 101 5.967073365401693E-3
139 102 6.220953870141162E-3
139 103 6.478433944192542E-3
139 104 6.739078876126403E-3
139 105 7.002425462304573E-3
139 106 7.267982959054018E-3
139 107 7.535234228435287E-3
139 108 7.803637077389106E-3
139 109 8.072625788505754E-3
139 110 8.341612839080366E-3
139 111 8.609990803507927E-3
139 112 8.87713443244969E-3
139 113 9.142402900584164E-3
139 114 9.405142213157209E-3
139 115 9.664687759983982E-3
139 116 9.920367004047512E-3
139 117 1.0171502290401539E-2
139 118 1.0417413759735424E-2
139 119 1.0657422349712599E-2
139 120 1.0890852866066733E-2
139 121 1.1117037104445721E-2
139 122 1.1335317003146307E-2
139 123 1.1545047806193727E-2
139 124 1.174560121570136E-2
139 125 1.1936368512104304E-2
139 126 1.211676362070477E-2
139 127 1.2286226103001317E-2
139 128 1.2444224051501605E-2
139 129 1.2590256867140038E-2
139 130 1.2723857899036553E-2
139 131 1.2844596927137332E-2
139 132 1.2952082469266922E-2
139 133 1.3045963895286368E-2
139 134 1.3125933332383884E-2
139 135 1.3191727347011566E-2
139 136 1.3243128390610169E-2
139 137 1.3279965998018756E-2
139 138 1.33021177293305E-2
139 139 1.330950984791183E-2
139 140 1.33021177293305E-2
139 141 1.3279965998018756E-2
139 142 1.3243128390610169E-2
139 143 1.3191727347011566E-2
139 144 1.3125933332383884E-2
139 145 1.3045963895286368E-2
139 146 1.2952082469266922E-2
139 147 1.2844596927137332E-2
139 148 1.2723857899036553E-2
139 149 1.2590256867140038E-2
139 150 1.2444224051501605E-2
139 151 1.2286226103001317E-2
139 152 1.211676362070477E-2
139 153 1.1936368512104304E-2
139 154 1.174560121570136E-2
139 155 1.1545047806193727E-2
139 156 1.1335317003146307E-2
139 157 1.1117037104445721E-2
139 158 1.0890852866066733E-2
139 159 1.0657422349712599E-2
139 160 1.0417413759735424E-2
139 161 1.0171502290401539E-2
139 162 9.971820506215066E-3
139 163 9.722156094087282E-3
139 164 9.469257224915425E-3
139 165 9.21385389790888E-3
139 166 8.956672368022119E-3
139 167 8.698432646615059E-3
139 168 8.439846132618872E-3
139 169 8.181613385298171E-3
139 170 7.924422048042185E-3
139 171 7.668944930906295E-3
139 172 7.415838257880172E-3
139 173 7.165740083098196E-3
139 174 6.9192688784505425E-3
139 175 6.677022293317386E-3
139 176 6.439576085451722E-3
139 177 6.207483220395236E-3
139 178 5.98127313524237E-3
139 179 5.761451161085212E-3
139 180 5.5484980970898065E-3
139 181 5.342869927885378E-3
139 182 5.144997674802857E-3
139 183 4.9552873704875955E-3
139 184 4.774120145541312E-3
139 185 4.601852415126579E-3
139 186 4.4388161528985766E-3
139 187 4.285319239216397E-3
139 188 4.141645870331928E-3
139 189 4.008057015158015E-3
139 190 3.884790906277939E-3
139 191 3.772063552072238E-3
139 192 3.6700692572020155E-3
139 193 3.5789811391944704E-3
139 194 3.498951629519161E-3
139 195 3.4301129483142972E-3
139 196 3.3725775428115404E-3
139 197 3.3264384805049866E-3
139 198 3.2917697892036915E-3
139 199 3.2686267372851316E-3
139 200 3.2570460487163022E-3
140 41 5.746833410330014E-5
140 42 6.41150117582164E-5
140 43 7.145099732471724E-5
140 44 7.953793557242816E-5
140 45 8.844184310713185E-5
140 46 9.8233293538506E-5
140 47 1.0898759679241744E-4
140 48 1.2078497065307907E-4
140 49 1.3371070247100844E-4
140 50 1.478552988261544E-4
140 51 1.6331462079362345E-4
140 52 1.801900023241393E-4
140 53 1.9858834912484408E-4
140 54 2.186222153105597E-4
140 55 2.404098549935424E-4
140 56 2.64075245893548E-4
140 57 2.8974808198221224E-4
140 58 3.175637321289198E-4
140 59 3.4766316169206583E-4
140 60 3.801928140025063E-4
140 61 4.153044487175457E-4
140 62 4.531549340864822E-4
140 63 4.939059902648149E-4
140 64 5.377238809458774E-4
140 65 5.847790507477894E-4
140 66 6.352457060019391E-4
140 67 6.893013368380249E-4
140 68 7.471261787510978E-4
140 69 8.089026121686099E-4
140 70 8.748144989104668E-4
140 71 9.450464548521614E-4
140 72 1.0197830585595082E-3
140 73 1.0992079961619481E-3
140 74 1.183503143267951E-3
140 75 1.2728475852982531E-3
140 76 1.367416578217387E-3
140 77 1.4673804522774983E-3
140 78 1.5729034620464647E-3
140 79 1.6841425866698377E-3
140 80 1.8012462850076334E-3
140 81 1.9243532109863046E-3
140 82 2.0535908952067335E-3
140 83 2.1890743995435897E-3
140 84 2.330904952152349E-3
140 85 2.4791685709596527E-3
140 86 2.633934684342309E-3
140 87 2.795254758291549E-3
140 88 2.9631609399036283E-3
140 89 3.1376647275268414E-3
140 90 3.3187556783199905E-3
140 91 3.5064001643299895E-3
140 92 3.7005401884686075E-3
140 93 3.901092271952699E-3
140 94 4.107946424861764E-3
140 95 4.32096521145483E-3
140 96 4.53998292177005E-3
140 97 4.76480486080035E-3
140 98 4.995206766193312E-3
140 99 5.230934364960887E-3
140 100 5.471703079103E-3
140 101 5.717197889348822E-3
140 102 5.967073365401693E-3
140 103 6.220953870141162E-3
140 104 6.478433944192542E-3
140 105 6.739078876126403E-3
140 106 7.002425462304573E-3
140 107 7.267982959054018E-3
140 108 7.535234228435287E-3
140 109 7.803637077389106E-3
140 110 8.072625788505754E-3
140 111 8.341612839080366E-3
140 112 8.609990803507927E-3
140 113 8.87713443244969E-3
140 114 9.142402900584164E-3
140 115 9.405142213157209E-3
140 116 9.664687759983982E-3
140 117 9.920367004047512E-3
140 118 1.0171502290401539E-2
140 119 1.0417413759735424E-2
140 120 1.0657422349712599E-2
140 121 1.0890852866066733E-2
140 122 1.1117037104445721E-2
140 123 1.1335317003146307E-2
140 124 1.1545047806193727E-2
140 125 1.174560121570136E-2
140 126 1.1936368512104304E-2
140 127 1.211676362070477E-2
140 128 1.2286226103001317E-2
140 129 1.2444224051501605E-2
140 130 1.2590256867140038E-2
140 131 1.2723857899036553E-2
140 132 1.2844596927137332E-2
140 133 1.2952082469266922E-2
140 134 1.3045963895286368E-2
140 135 1.3125933332383884E-2
140 136 1.3191727347011566E-2
140 137 1.3243128390610169E-2
140 138 1.3279965998018756E-2
140 139 1.33021177293305E-2
140 140 1.330950984791183E-2
140 141 1.33021177293305E-2
140 142 1.3279965998018756E-2
140 143 1.3243128390610169E-2
140 144 1.3191727347011566E-2
140 145 1.3125933332383884E-2
140 146 1.3045963895286368E-2
140 147 1.2952082469266922E-2
140 148 1.2844596927137332E-2
140 149 1.2723857899036553E-2
140 150 1.2590256867140038E-2
140 151 1.2444224051501605E-2
140 152 1.2286226103001317E-2
140 153 1.211676362070477E-2
140 154 1.1936368512104304E-2
140 155 1.174560121570136E-2
140 156 1.1545047806193727E-2
140 157 1.1335317003146307E-2
140 158 1.1117037104445721E-2
140 159 1.0890852866066733E-2
140 160 1.0657422349712599E-2
140 161 1.0468867261902978E-2
140 162 1.0228970624504839E-2
140 163 9.984482015805728E-3
140 164 9.736138757308698E-3
140 165 9.484680148729637E-3
140 166 9.230844743691296E-3
140 167 8.975367725988196E-3
140 168 8.718978400300344E-3
140 169 8.462397809733445E-3
140 170 8.206336490976763E-3
140 171 7.95149237621526E-3
140 172 7.698548849228911E-3
140 173 7.448172961378157E-3
140 174 7.201013811429417E-3
140 175 6.957701091436963E-3
140 176 6.718843799186085E-3
140 177 6.485029116034709E-3
140 178 6.256821447383905E-3
140 179 6.034761621477742E-3
140 180 5.819366240795066E-3
140 181 5.611127178963393E-3
140 182 5.410511214910858E-3
140 183 5.217959794886833E-3
140 184 5.0338889120348645E-3
140 185 4.858689092400707E-3
140 186 4.6927254756095535E-3
140 187 4.536337977954638E-3
140 188 4.389841525306633E-3
140 189 4.2535263430810875E-3
140 190 4.1276582904886E-3
140 191 4.012479226437308E-3
140 192 3.90820739475579E-3
140 193 3.815037816851057E-3
140 194 3.733142680504257E-3
140 195 3.6626717142276034E-3
140 196 3.6037525374506022E-3
140 197 3.5564909777609766E-3
140 198 3.520971347484232E-3
140 199 3.497256673032769E-3
140 200 3.4853888716774714E-3
141 42 5.746833410330014E-5
141 43 6.41150117582164E-5
141 44 7.145099732471724E-5
141 45 7.953793557242816E-5
141 46 8.844184310713185E-5
141 47 9.8233293538506E-5
141 48 1.0898759679241744E-4
141 49 1.2078497065307907E-4
141 50 1.3371070247100844E-4
141 51 1.478552988261544E-4
141 52 1.6331462079362345E-4
141 53 1.801900023241393E-4
141 54 1.9858834912484408E-4
141 55 2.186222153105597E-4
141 56 2.404098549935424E-4
141 57 2.64075245893548E-4
141 58 2.8974808198221224E-4
141 59 3.175637321289198E-4
141 60 3.4766316169206583E-4
141 61 3.801928140025063E-4
141 62 4.153044487175457E-4
141 63 4.531549340864822E-4
141 64 4.939059902648149E-4
141 65 5.377238809458774E-4
141 66 5.847790507477894E-4
141 67 6.352457060019391E-4
141 68 6.893013368380249E-4
141 69 7.471261787510978E-4
141 70 8.089026121686099E-4
141 71 8.748144989104668E-4
141 72 9.450464548521614E-4
141 73 1.0197830585595082E-3
141 74 1.0992079961619481E-3
141 75 1.183503143267951E-3
141 76 1.2728475852982531E-3
141 77 1.367416578217387E-3
141 78 1.4673804522774983E-3
141 79 1.5729034620464647E-3
141 80 1.6841425866698377E-3
141 81 1.8012462850076334E-3
141 82 1.9243532109863046E-3
141 83 2.0535908952067335E-3
141 84 2.1890743995435897E-3
141 85 2.330904952152349E-3
141 86 2.4791685709596527E-3
141 87 2.633934684342309E-3
141 88 2.795254758291549E-3
141 89 2.9631609399036283E-3
141 90 3.1376647275268414E-3
141 91 3.3187556783199905E-3
141 92 3.5064001643299895E-3
141 93 3.7005401884686075E-3
141 94 3.901092271952699E-3
141 95 4.107946424861764E-3
141 96 4.32096521145483E-3
141 97 4.53998292177005E-3
141 98 4.76480486080035E-3
141 99 4.995206766193312E-3
141 100 5.230934364960887E-3
141 101 5.471703079103E-3
141 102 5.717197889348822E-3
141 103 5.967073365401693E-3
141 104 6.220953870141162E-3
141 105 6.478433944192542E-3
141 106 6.739078876126403E-3
141 107 7.002425462304573E-3
141 108 7.267982959054018E-3
141 109 7.535234228435287E-3
141 110 7.803637077389106E-3
141 111 8.072625788505754E-3
141 112 8.341612839080366E-3
141 113 8.609990803507927E-3
141 114 8.87713443244969E-3
141 115 9.142402900584164E-3
141 116 9.405142213157209E-3
141 117 9.664687759983982E-3
141 118 9.920367004047512E-3
141 119 1.0171502290401539E-2
141 120 1.0417413759735424E-2
141 121 1.0657422349712599E-2
141 122 1.0890852866066733E-2
141 123 1.1117037104445721E-2
141 124 1.1335317003146307E-2
141 125 1.1545047806193727E-2
141 126 1.174560121570136E-2
141 127 1.1936368512104304E-2
141 128 1.211676362070477E-2
141 129 1.2286226103001317E-2
141 130 1.2444224051501605E-2
141 131 1.2590256867140038E-2
141 132 1.2723857899036553E-2
141 133 1.2844596927137332E-2
141 134 1.2952082469266922E-2
141 135 1.3045963895286368E-2
141 136 1.3125933332383884E-2
141 137 1.3191727347011566E-2
141 138 1.3243128390610169E-2
141 139 1.3279965998018756E-2
141 140 1.33021177293305E-2
141 141 1.330950984791183E-2
141 142 1.33021177293305E-2
141 143 1.3279965998018756E-2
141 144 1.3243128390610169E-2
141 145 1.3191727347011566E-2
141 146 1.3125933332383884E-2
141 147 1.3045963895286368E-2
141 148 1.2952082469266922E-2
141 149 1.2844596927137332E-2
141 150 1.2723857899036553E-2
141 151 1.2590256867140038E-2
141 152 1.2444224051501605E-2
141 153 1.2286226103001317E-2
141 154 1.211676362070477E-2
141 155 1.1936368512104304E-2
141 156 1.174560121570136E-2
141 157 1.1545047806193727E-2
141 158 1.1335317003146307E-2
141 159 1.1117037104445721E-2
141 160 1.0942306368234287E-2
141 161 1.07148906838159E-2
141 162 1.048152877149364E-2
141 163 1.0242953287726255E-2
141 164 9.99990493961994E-3
141 165 9.753129603091115E-3
141 166 9.503375506695715E-3
141 167 9.25139049737658E-3
141 168 8.99791940310277E-3
141 169 8.743701505978935E-3
141 170 8.48946813790652E-3
141 171 8.235940409299376E-3
141 172 7.983827079713245E-3
141 173 7.733822577560131E-3
141 174 7.486605174364578E-3
141 175 7.242835317298115E-3
141 176 7.003154122019951E-3
141 177 6.768182026174754E-3
141 178 6.538517602270082E-3
141 179 6.314736527093759E-3
141 180 6.097390703351329E-3
141 181 5.887007527820546E-3
141 182 5.684089299047369E-3
141 183 5.489112756458127E-3
141 184 5.302528741746228E-3
141 185 5.124761972517839E-3
141 186 4.9562109174567685E-3
141 187 4.797247761699789E-3
141 188 4.648218450703797E-3
141 189 4.509442800637217E-3
141 190 4.381214663240456E-3
141 191 4.263802133172152E-3
141 192 4.1574477860863495E-3
141 193 4.062368936065576E-3
141 194 3.9787579015595E-3
141 195 3.906782269640563E-3
141 196 3.8465851491770397E-3
141 197 3.7982854044298475E-3
141 198 3.761977861590054E-3
141 199 3.7377334818765712E-3
141 200 3.725599495993938E-3
142 43 5.746833410330014E-5
142 44 6.41150117582164E-5
142 45 7.145099732471724E-5
142 46 7.953793557242816E-5
142 47 8.844184310713185E-5
142 48 9.8233293538506E-5
142 49 1.0898759679241744E-4
142 50 1.2078497065307907E-4
142 51 1.3371070247100844E-4
142 52 1.478552988261544E-4
142 53 1.6331462079362345E-4
142 54 1.801900023241393E-4
142 55 1.9858834912484408E-4
142 56 2.186222153105597E-4
142 57 2.404098549935424E-4
142 58 2.64075245893548E-4
142 59 2.8974808198221224E-4
142 60 3.175637321289198E-4
142 61 3.4766316169206583E-4
142 62 3.801928140025063E-4
142 63 4.153044487175457E-4
142 64 4.531549340864822E-4
142 65 4.939059902648149E-4
142 66 5.377238809458774E-4
142 67 5.847790507477894E-4
142 68 6.352457060019391E-4
142 69 6.893013368380249E-4
142 70 7.471261787510978E-4
142 71 8.089026121686099E-4
142 72 8.748144989104668E-4
142 73 9.450464548521614E-4
142 74 1.0197830585595082E-3
142 75 1.0992079961619481E-3
142 76 1.183503143267951E-3
142 77 1.2728475852982531E-3
142 78 1.367416578217387E-3
142 79 1.4673804522774983E-3
142 80 1.5729034620464647E-3
142 81 1.6841425866698377E-3
142 82 1.8012462850076334E-3
142 83 1.9243532109863046E-3
142 84 2.0535908952067335E-3
142 85 2.1890743995435897E-3
142 86 2.330904952152349E-3
142 87 2.4791685709596527E-3
142 88 2.633934684342309E-3
142 89 2.795254758291549E-3
142 90 2.9631609399036283E-3
142 91 3.1376647275268414E-3
142 92 3.3187556783199905E-3
142 93 3.5064001643299895E-3
142 94 3.7005401884686075E-3
142 95 3.901092271952699E-3
142 96 4.107946424861764E-3
142 97 4.32096521145483E-3
142 98 4.53998292177005E-3
142 99 4.76480486080035E-3
142 100 4.995206766193312E-3
142 101 5.230934364960887E-3
142 102 5.471703079103E-3
142 103 5.717197889348822E-3
142 104 5.967073365401693E-3
142 105 6.220953870141162E-3
142 106 6.478433944192542E-3
142 107 6.739078876126403E-3
142 108 7.002425462304573E-3
142 109 7.267982959054018E-3
142 110 7.535234228435287E-3
142 111 7.803637077389106E-3
142 112 8.072625788505754E-3
142 113 8.341612839080366E-3
142 114 8.609990803507927E-3
142 115 8.87713443244969E-3
142 116 9.142402900584164E-3
142 117 9.405142213157209E-3
142 118 9.664687759983982E-3
142 119 9.920367004047512E-3
142 120 1.0171502290401539E-2
142 121 1.0417413759735424E-2
142 122 1.0657422349712599E-2
142 123 1.0890852866066733E-2
142 124 1.1117037104445721E-2
142 125 1.1335317003146307E-2
142 126 1.1545047806193727E-2
142 127 1.174560121570136E-2
142 128 1.1936368512104304E-2
142 129 1.211676362070477E-2
142 130 1.2286226103001317E-2
142 131 1.2444224051501605E-2
142 132 1.2590256867140038E-2
142 133 1.2723857899036553E-2
142 134 1.2844596927137332E-2
142 135 1.2952082469266922E-2
142 136 1.3045963895286368E-2
142 137 1.3125933332383884E-2
142 138 1.3191727347011566E-2
142 139 1.3243128390610169E-2
142 140 1.3279965998018756E-2
142 141 1.33021177293305E-2
142 142 1.330950984791183E-2
142 143 1.33021177293305E-2
142 144 1.3279965998018756E-2
142 145 1.3243128390610169E-2
142 146 1.3191727347011566E-2
142 147 1.3125933332383884E-2
142 148 1.3045963895286368E-2
142 149 1.2952082469266922E-2
142 150 1.2844596927137332E-2
142 151 1.2723857899036553E-2
142 152 1.2590256867140038E-2
142 153 1.2444224051501605E-2
142 154 1.2286226103001317E-2
142 155 1.211676362070477E-2
142 156 1.1936368512104304E-2
142 157 1.174560121570136E-2
142 158 1.1545047806193727E-2
142 159 1.1386770505313861E-2
142 160 1.1174505438549021E-2
142 161 1.095496787782495E-2
142 162 1.0728873347037315E-2
142 163 1.0496951695307852E-2
142 164 1.0259944133508671E-2
142 165 1.0018600297586017E-2
142 166 9.773675356776399E-3
142 167 9.525927183810288E-3
142 168 9.276113603055173E-3
142 169 9.024989731275844E-3
142 170 8.77330542430155E-3
142 171 8.521802841404505E-3
142 172 8.271214137630599E-3
142 173 8.022259292699665E-3
142 174 7.77564408342883E-3
142 175 7.532058204947565E-3
142 176 7.292173544286785E-3
142 177 7.056642608255323E-3
142 178 6.826097105884608E-3
142 179 6.601146684143668E-3
142 180 6.382377814119239E-3
142 181 6.170352823435305E-3
142 182 5.965609069367815E-3
142 183 5.768658245906764E-3
142 184 5.5799858169411016E-3
142 185 5.400050566802289E-3
142 186 5.229284258608075E-3
142 187 5.068091390205928E-3
142 188 4.9168490370303745E-3
142 189 4.775906770863166E-3
142 190 4.645586643320769E-3
142 191 4.526183222889498E-3
142 192 4.417963674481939E-3
142 193 4.321167870794792E-3
142 194 4.236008525201881E-3
142 195 4.162671336508936E-3
142 196 4.101315136619807E-3
142 197 4.052072033006117E-3
142 198 4.015047538822187E-3
142 199 3.990320684551223E-3
142 200 3.977944106193038E-3
143 44 5.746833410330014E-5
143 45 6.41150117582164E-5
143 46 7.145099732471724E-5
143 47 7.953793557242816E-5
143 48 8.844184310713185E-5
143 49 9.8233293538506E-5
143 50 1.0898759679241744E-4
143 51 1.2078497065307907E-4
143 52 1.3371070247100844E-4
143 53 1.478552988261544E-4
143 54 1.6331462079362345E-4
143 55 1.801900023241393E-4
143 56 1.9858834912484408E-4
143 57 2.186222153105597E-4
143 58 2.404098549935424E-4
143 59 2.64075245893548E-4
143 60 2.8974808198221224E-4
143 61 3.175637321289198E-4
143 62 3.4766316169206583E-4
143 63 3.801928140025063E-4
143 64 4.153044487175457E-4
143 65 4.531549340864822E-4
143 66 4.939059902648149E-4
143 67 5.377238809458774E-4
143 68 5.847790507477894E-4
143 69 6.352457060019391E-4
143 70 6.893013368380249E-4
143 71 7.471261787510978E-4
143 72 8.089026121686099E-4
143 73 8.748144989104668E-4
143 74 9.450464548521614E-4
143 75 1.0197830585595082E-3
143 76 1.0992079961619481E-3
143 77 1.183503143267951E-3
143 78 1.2728475852982531E-3
143 79 1.367416578217387E-3
143 80 1.4673804522774983E-3
143 81 1.5729034620464647E-3
143 82 1.6841425866698377E-3
143 83 1.8012462850076334E-3
143 84 1.9243532109863046E-3
143 85 2.0535908952067335E-3
143 86 2.1890743995435897E-3
143 87 2.330904952152349E-3
143 88 2.4791685709596527E-3
143 89 2.633934684342309E-3
143 90 2.795254758291549E-3
143 91 2.9631609399036283E-3
143 92 3.1376647275268414E-3
143 93 3.3187556783199905E-3
143 94 3.5064001643299895E-3
143 95 3.7005401884686075E-3
143 96 3.901092271952699E-3
143 97 4.107946424861764E-3
143 98 4.32096521145483E-3
143 99 4.53998292177005E-3
143 100 4.76480486080035E-3
143 101 4.995206766193312E-3
143 102 5.230934364960887E-3
143 103 5.471703079103E-3
143 104 5.717197889348822E-3
143 105 5.967073365401693E-3
143 106 6.220953870141162E-3
143 107 6.478433944192542E-3
143 108 6.739078876126403E-3
143 109 7.002425462304573E-3
143 110 7.267982959054018E-3
143 111 7.535234228435287E-3
143 112 7.803637077389106E-3
143 113 8.072625788505754E-3
143 114 8.341612839080366E-3
143 115 8.609990803507927E-3
143 116 8.87713443244969E-3
143 117 9.142402900584164E-3
143 118 9.405142213157209E-3
143 119 9.664687759983982E-3
143 120 9.920367004047512E-3
143 121 1.0171502290401539E-2
143 122 1.0417413759735424E-2
143 123 1.0657422349712599E-2
143 124 1.0890852866066733E-2
143 125 1.1117037104445721E-2
143 126 1.1335317003146307E-2
143 127 1.1545047806193727E-2
143 128 1.174560121570136E-2
143 129 1.1936368512104304E-2
143 130 1.211676362070477E-2
143 131 1.2286226103001317E-2
143 132 1.2444224051501605E-2
143 133 1.2590256867140038E-2
143 134 1.2723857899036553E-2
143 135 1.2844596927137332E-2
143 136 1.2952082469266922E-2
143 137 1.3045963895286368E-2
143 138 1.3125933332383884E-2
143 139 1.3191727347011566E-2
143 140 1.3243128390610169E-2
143 141 1.3279965998018756E-2
143 142 1.33021177293305E-2
143 143 1.330950984791183E-2
143 144 1.33021177293305E-2
143 145 1.3279965998018756E-2
143 146 1.3243128390610169E-2
143 147 1.3191727347011566E-2
143 148 1.3125933332383884E-2
143 149 1.3045963895286368E-2
143 150 1.2952082469266922E-2
143 151 1.2844596927137332E-2
143 152 1.2723857899036553E-2
143 153 1.2590256867140038E-2
143 154 1.2444224051501605E-2
143 155 1.2286226103001317E-2
143 156 1.211676362070477E-2
143 157 1.1936368512104304E-2
143 158 1.1797054717868913E-2
143 159 1.1602516140297028E-2
143 160 1.1399432014904523E-2
143 161 1.1188488101770437E-2
143 162 1.0970390801639161E-2
143 163 1.0745864192819731E-2
143 164 1.051564705327393E-2
143 165 1.0280489887193956E-2
143 166 1.0041151974700591E-2
143 167 9.79839846245499E-3
143 168 9.552997511983363E-3
143 169 9.305717521377786E-3
143 170 9.05732443477383E-3
143 171 8.808579152632771E-3
143 172 8.560235054390925E-3
143 173 8.313035643499295E-3
143 174 8.067712323282654E-3
143 175 7.8249823104175E-3
143 176 7.585546691182938E-3
143 177 7.3500886239966385E-3
143 178 7.11927169012891E-3
143 179 6.893738392910088E-3
143 180 6.674108804227644E-3
143 181 6.460979355666508E-3
143 182 6.2549217702947E-3
143 183 6.056482129850789E-3
143 184 5.866180070962825E-3
143 185 5.684508103031337E-3
143 186 5.511931039551448E-3
143 187 5.34888553393866E-3
143 188 5.195779710365296E-3
143 189 5.052992879713926E-3
143 190 4.920875330512208E-3
143 191 4.799748184630555E-3
143 192 4.689903307597941E-3
143 193 4.591603263618243E-3
143 194 4.505081305744228E-3
143 195 4.430541392181127E-3
143 196 4.368158220338014E-3
143 197 4.318077271012147E-3
143 198 4.280414855967286E-3
143 199 4.255258163138653E-3
143 200 4.242665294750323E-3
144 45 5.746833410330014E-5
144 46 6.41150117582164E-5
144 47 7.145099732471724E-5
144 48 7.953793557242816E-5
144 49 8.844184310713185E-5
144 50 9.8233293538506E-5
144 51 1.0898759679241744E-4
144 52 1.2078497065307907E-4
144 53 1.3371070247100844E-4
144 54 1.478552988261544E-4
144 55 1.6331462079362345E-4
144 56 1.801900023241393E-4
144 57 1.9858834912484408E-4
144 58 2.186222153105597E-4
144 59 2.404098549935424E-4
144 60 2.64075245893548E-4
144 61 2.8974808198221224E-4
144 62 3.175637321289198E-4
144 63 3.4766316169206583E-4
144 64 3.801928140025063E-4
144 65 4.153044487175457E-4
144 66 4.531549340864822E-4
144 67 4.939059902648149E-4
144 68 5.377238809458774E-4
144 69 5.847790507477894E-4
144 70 6.352457060019391E-4
144 71 6.893013368380249E-4
144 72 7.471261787510978E-4
144 73 8.089026121686099E-4
144 74 8.748144989104668E-4
144 75 9.450464548521614E-4
144 76 1.0197830585595082E-3
144 77 1.0992079961619481E-3
144 78 1.183503143267951E-3
144 79 1.2728475852982531E-3
144 80 1.367416578217387E-3
144 81 1.4673804522774983E-3
144 82 1.5729034620464647E-3
144 83 1.6841425866698377E-3
144 84 1.8012462850076334E-3
144 85 1.9243532109863046E-3
144 86 2.0535908952067335E-3
144 87 2.1890743995435897E-3
144 88 2.330904952152349E-3
144 89 2.4791685709596527E-3
144 90 2.633934684342309E-3
144 91 2.795254758291549E-3
144 92 2.9631609399036283E-3
144 93 3.1376647275268414E-3
144 94 3.3187556783199905E-3
144 95 3.5064001643299895E-3
144 96 3.7005401884686075E-3
144 97 3.901092271952699E-3
144 98 4.107946424861764E-3
144 99 4.32096521145483E-3
144 100 4.53998292177005E-3
144 101 4.76480486080035E-3
144 102 4.995206766193312E-3
144 103 5.230934364960887E-3
144 104 5.471703079103E-3
144 105 5.717197889348822E-3
144 106 5.967073365401693E-3
144 107 6.220953870141162E-3
144 108 6.478433944192542E-3
144 109 6.739078876126403E-3
144 110 7.002425462304573E-3
144 111 7.267982959054018E-3
144 112 7.535234228435287E-3
144 113 7.803637077389106E-3
144 114 8.072625788505754E-3
144 115 8.341612839080366E-3
144 116 8.609990803507927E-3
144 117 8.87713443244969E-3
144 118 9.142402900584164E-3
144 119 9.405142213157209E-3
144 120 9.664687759983982E-3
144 121 9.920367004047512E-3
144 122 1.0171502290401539E-2
144 123 1.0417413759735424E-2
144 124 1.0657422349712599E-2
144 125 1.0890852866066733E-2
144 126 1.1117037104445721E-2
144 127 1.1335317003146307E-2
144 128 1.1545047806193727E-2
144 129 1.174560121570136E-2
144 130 1.1936368512104304E-2
144 131 1.211676362070477E-2
144 132 1.2286226103001317E-2
144 133 1.2444224051501605E-2
144 134 1.2590256867140038E-2
144 135 1.2723857899036553E-2
144 136 1.2844596927137332E-2
144 137 1.2952082469266922E-2
144 138 1.3045963895286368E-2
144 139 1.3125933332383884E-2
144 140 1.3191727347011566E-2
144 141 1.3243128390610169E-2
144 142 1.3279965998018756E-2
144 143 1.33021177293305E-2
144 144 1.330950984791183E-2
144 145 1.33021177293305E-2
144 146 1.3279965998018756E-2
144 147 1.3243128390610169E-2
144 148 1.3191727347011566E-2
144 149 1.3125933332383884E-2
144 150 1.3045963895286368E-2
144 151 1.2952082469266922E-2
144 152 1.2844596927137332E-2
144 153 1.2723857899036553E-2
144 154 1.2590256867140038E-2
144 155 1.2444224051501605E-2
144 156 1.2286226103001317E-2
144 157 1.2168217122872324E-2
144 158 1.1993836846207605E-2
144 159 1.1809716227459575E-2
144 160 1.1616498803518444E-2
144 161 1.1414854938718735E-2
144 162 1.1205478947552854E-2
144 163 1.0989086159605239E-2
144 164 1.0766409946505016E-2
144 165 1.0538198730388504E-2
144 166 1.0305212992872547E-2
144 167 1.0068222302873665E-2
144 168 9.828002380777606E-3
144 169 9.585332215481348E-3
144 170 9.340991249709009E-3
144 171 9.09575664776025E-3
144 172 8.850400658501468E-3
144 173 8.605688084973914E-3
144 174 8.362373870487966E-3
144 175 8.121200809518026E-3
144 176 7.882897390127354E-3
144 177 7.648175773056524E-3
144 178 7.4177299110221185E-3
144 179 7.192233810212886E-3
144 180 6.972339934457357E-3
144 181 6.758677751087039E-3
144 182 6.551852416149482E-3
144 183 6.352443595350761E-3
144 184 6.161004415941025E-3
144 185 5.978060543711985E-3
144 186 5.804109378361922E-3
144 187 5.639619359710817E-3
144 188 5.4850293766222115E-3
144 189 5.340748270014338E-3
144 190 5.207154421023713E-3
144 191 5.08459541522065E-3
144 192 4.973387773766861E-3
144 193 4.8738167425473765E-3
144 194 4.786136130597489E-3
144 195 4.710568189573306E-3
144 196 4.647303526573466E-3
144 197 4.596501043299182E-3
144 198 4.558287895328614E-3
144 199 4.532759466166386E-3
144 200 4.519979351695938E-3
145 46 5.746833410330014E-5
145 47 6.41150117582164E-5
145 48 7.145099732471724E-5
145 49 7.953793557242816E-5
145 50 8.844184310713185E-5
145 51 9.8233293538506E-5
145 52 1.0898759679241744E-4
145 53 1.2078497065307907E-4
145 54 1.3371070247100844E-4
145 55 1.478552988261544E-4
145 56 1.6331462079362345E-4
145 57 1.801900023241393E-4
145 58 1.9858834912484408E-4
145 59 2.186222153105597E-4
145 60 2.404098549935424E-4
145 61 2.64075245893548E-4
145 62 2.8974808198221224E-4
145 63 3.175637321289198E-4
145 64 3.4766316169206583E-4
145 65 3.801928140025063E-4
145 66 4.153044487175457E-4
145 67 4.531549340864822E-4
145 68 4.939059902648149E-4
145 69 5.377238809458774E-4
145 70 5.847790507477894E-4
145 71 6.352457060019391E-4
145 72 6.893013368380249E-4
145 73 7.471261787510978E-4
145 74 8.089026121686099E-4
145 75 8.748144989104668E-4
145 76 9.450464548521614E-4
145 77 1.0197830585595082E-3
145 78 1.0992079961619481E-3
145 79 1.183503143267951E-3
145 80 1.2728475852982531E-3
145 81 1.367416578217387E-3
145 82 1.4673804522774983E-3
145 83 1.5729034620464647E-3
145 84 1.6841425866698377E-3
145 85 1.8012462850076334E-3
145 86 1.9243532109863046E-3
145 87 2.0535908952067335E-3
145 88 2.1890743995435897E-3
145 89 2.330904952152349E-3
145 90 2.4791685709596527E-3
145 91 2.633934684342309E-3
145 92 2.795254758291549E-3
145 93 2.9631609399036283E-3
145 94 3.1376647275268414E-3
145 95 3.3187556783199905E-3
145 96 3.5064001643299895E-3
145 97 3.7005401884686075E-3
145 98 3.901092271952699E-3
145 99 4.107946424861764E-3
145 100 4.32096521145483E-3
145 101 4.53998292177005E-3
145 102 4.76480486080035E-3
145 103 4.995206766193312E-3
145 104 5.230934364960887E-3
145 105 5.471703079103E-3
145 106 5.717197889348822E-3
145 107 5.967073365401693E-3
145 108 6.220953870141162E-3
145 109 6.478433944192542E-3
145 110 6.739078876126403E-3
145 111 7.002425462304573E-3
145 112 7.267982959054018E-3
145 113 7.535234228435287E-3
145 114 7.803637077389106E-3
145 115 8.072625788505754E-3
145 116 8.341612839080366E-3
145 117 8.609990803507927E-3
145 118 8.87713443244969E-3
145 119 9.142402900584164E-3
145 120 9.405142213157209E-3
145 121 9.664687759983982E-3
145 122 9.920367004047512E-3
145 123 1.0171502290401539E-2
145 124 1.0417413759735424E-2
145 125 1.0657422349712599E-2
145 126 1.0890852866066733E-2
145 127 1.1117037104445721E-2
145 128 1.1335317003146307E-2
145 129 1.1545047806193727E-2
145 130 1.174560121570136E-2
145 131 1.1936368512104304E-2
145 132 1.211676362070477E-2
145 133 1.2286226103001317E-2
145 134 1.2444224051501605E-2
145 135 1.2590256867140038E-2
145 136 1.2723857899036553E-2
145 137 1.2844596927137332E-2
145 138 1.2952082469266922E-2
145 139 1.3045963895286368E-2
145 140 1.3125933332383884E-2
145 141 1.3191727347011566E-2
145 142 1.3243128390610169E-2
145 143 1.3279965998018756E-2
145 144 1.33021177293305E-2
145 145 1.330950984791183E-2
145 146 1.33021177293305E-2
145 147 1.3279965998018756E-2
145 148 1.3243128390610169E-2
145 149 1.3191727347011566E-2
145 150 1.3125933332383884E-2
145 151 1.3045963895286368E-2
145 152 1.2952082469266922E-2
145 153 1.2844596927137332E-2
145 154 1.2723857899036553E-2
145 155 1.2590256867140038E-2
145 156 1.249567755366916E-2
145 157 1.2343694437104617E-2
145 158 1.2180878632462986E-2
145 159 1.2007819509429021E-2
145 160 1.1825139151273787E-2
145 161 1.163348964930086E-2
145 162 1.1433550296684813E-2
145 163 1.1226024701238138E-2
145 164 1.1011637836719813E-2
145 165 1.0791133052183608E-2
145 166 1.0565269058561578E-2
145 167 1.0334816911195161E-2
145 168 1.0100557006371651E-2
145 169 9.863276109108827E-3
145 170 9.623764428467768E-3
145 171 9.382812755577705E-3
145 172 9.141209678343238E-3
145 173 8.899738885490139E-3
145 174 8.659176571209286E-3
145 175 8.42028895019782E-3
145 176 8.183829891391612E-3
145 177 7.950538677152832E-3
145 178 7.7211378931405E-3
145 179 7.4963314525693875E-3
145 180 7.2768027570722805E-3
145 181 7.063212994940332E-3
145 182 6.8561995761431006E-3
145 183 6.656374702239718E-3
145 184 6.46432406809992E-3
145 185 6.280605691271609E-3
145 186 6.105748863871353E-3
145 187 5.940253221045474E-3
145 188 5.784587919359858E-3
145 189 5.639190917931998E-3
145 190 5.504468354722781E-3
145 191 5.380794010160017E-3
145 192 5.268508850170086E-3
145 193 5.167920640746106E-3
145 194 5.0793036263764545E-3
145 195 5.002898264989828E-3
145 196 4.938911012534475E-3
145 197 4.887514150889933E-3
145 198 4.8488456534982825E-3
145 199 4.823009083885899E-3
145 200 4.810073523112001E-3
146 47 5.746833410330014E-5
146 48 6.41150117582164E-5
146 49 7.145099732471724E-5
146 50 7.953793557242816E-5
146 51 8.844184310713185E-5
146 52 9.8233293538506E-5
146 53 1.0898759679241744E-4
146 54 1.2078497065307907E-4
146 55 1.3371070247100844E-4
146 56 1.478552988261544E-4
146 57 1.6331462079362345E-4
146 58 1.801900023241393E-4
146 59 1.9858834912484408E-4
146 60 2.186222153105597E-4
146 61 2.404098549935424E-4
146 62 2.64075245893548E-4
146 63 2.8974808198221224E-4
146 64 3.175637321289198E-4
146 65 3.4766316169206583E-4
146 66 3.801928140025063E-4
146 67 4.153044487175457E-4
146 68 4.531549340864822E-4
146 69 4.939059902648149E-4
146 70 5.377238809458774E-4
146 71 5.847790507477894E-4
146 72 6.352457060019391E-4
146 73 6.893013368380249E-4
146 74 7.471261787510978E-4
146 75 8.089026121686099E-4
146 76 8.748144989104668E-4
146 77 9.450464548521614E-4
146 78 1.0197830585595082E-3
146 79 1.0992079961619481E-3
146 80 1.183503143267951E-3
146 81 1.2728475852982531E-3
146 82 1.367416578217387E-3
146 83 1.4673804522774983E-3
146 84 1.5729034620464647E-3
146 85 1.6841425866698377E-3
146 86 1.8012462850076334E-3
146 87 1.9243532109863046E-3
146 88 2.0535908952067335E-3
146 89 2.1890743995435897E-3
146 90 2.330904952152349E-3
146 91 2.4791685709596527E-3
146 92 2.633934684342309E-3
146 93 2.795254758291549E-3
146 94 2.9631609399036283E-3
146 95 3.1376647275268414E-3
146 96 3.3187556783199905E-3
146 97 3.5064001643299895E-3
146 98 3.7005401884686075E-3
146 99 3.901092271952699E-3
146 100 4.107946424861764E-3
146 101 4.32096521145483E-3
146 102 4.53998292177005E-3
146 103 4.76480486080035E-3
146 104 4.995206766193312E-3
146 105 5.230934364960887E-3
146 106 5.471703079103E-3
146 107 5.717197889348822E-3
146 108 5.967073365401693E-3
146 109 6.220953870141162E-3
146 110 6.478433944192542E-3
146 111 6.739078876126403E-3
146 112 7.002425462304573E-3
146 113 7.267982959054018E-3
146 114 7.535234228435287E-3
146 115 7.803637077389106E-3
146 116 8.072625788505754E-3
146 117 8.341612839080366E-3
146 118 8.609990803507927E-3
146 119 8.87713443244969E-3
146 120 9.142402900584164E-3
146 121 9.405142213157209E-3
146 122 9.664687759983982E-3
146 123 9.920367004047512E-3
146 124 1.0171502290401539E-2
146 125 1.0417413759735424E-2
146 126 1.0657422349712599E-2
146 127 1.0890852866066733E-2
146 128 1.1117037104445721E-2
146 129 1.1335317003146307E-2
146 130 1.1545047806193727E-2
146 131 1.174560121570136E-2
146 132 1.1936368512104304E-2
146 133 1.211676362070477E-2
146 134 1.2286226103001317E-2
146 135 1.2444224051501605E-2
146 136 1.2590256867140038E-2
146 137 1.2723857899036553E-2
146 138 1.2844596927137332E-2
146 139 1.2952082469266922E-2
146 140 1.3045963895286368E-2
146 141 1.3125933332383884E-2
146 142 1.3191727347011566E-2
146 143 1.3243128390610169E-2
146 144 1.3279965998018756E-2
146 145 1.33021177293305E-2
146 146 1.330950984791183E-2
146 147 1.33021177293305E-2
146 148 1.3279965998018756E-2
146 149 1.3243128390610169E-2
146 150 1.3191727347011566E-2
146 151 1.3125933332383884E-2
146 152 1.3045963895286368E-2
146 153 1.2952082469266922E-2
146 154 1.2844596927137332E-2
146 155 1.2775311401204107E-2
146 156 1.2647725201243338E-2
146 157 1.2508339063259821E-2
146 158 1.2357677100326033E-2
146 159 1.2196301556277198E-2
146 160 1.2024810355211437E-2
146 161 1.1843834509239865E-2
146 162 1.1654035402986145E-2
146 163 1.1456101973799386E-2
146 164 1.125074780691673E-2
146 165 1.1038708164892887E-2
146 166 1.0820736970506221E-2
146 167 1.0597603762059564E-2
146 168 1.0370090639526383E-2
146 169 1.0138989219358071E-2
146 170 9.905097614977524E-3
146 171 9.669217459050757E-3
146 172 9.432150982566376E-3
146 173 9.19469816457861E-3
146 174 8.957653965199992E-3
146 175 8.721805653082872E-3
146 176 8.4879302372233E-3
146 177 8.256792011475588E-3
146 178 8.029140218700102E-3
146 179 7.805706839999895E-3
146 180 7.587204513052362E-3
146 181 7.374324582128342E-3
146 182 7.1677352810305675E-3
146 183 6.96808004889226E-3
146 184 6.7759759775703025E-3
146 185 6.592012388259289E-3
146 186 6.416749533955162E-3
146 187 6.250717423520395E-3
146 188 6.09441476235526E-3
146 189 5.9483080040683015E-3
146 190 5.812830507068303E-3
146 191 5.688381789672217E-3
146 192 5.5753268771392625E-3
146 193 5.473995733999164E-3
146 194 5.384682775138445E-3
146 195 5.307646449337623E-3
146 196 5.243108889306295E-3
146 197 5.191255622733575E-3
146 198 5.152235339447218E-3
146 199 5.126159710443898E-3
146 200 5.113103255301962E-3
147 48 5.746833410330014E-5
147 49 6.41150117582164E-5
147 50 7.145099732471724E-5
147 51 7.953793557242816E-5
147 52 8.844184310713185E-5
147 53 9.8233293538506E-5
147 54 1.0898759679241744E-4
147 55 1.2078497065307907E-4
147 56 1.3371070247100844E-4
147 57 1.478552988261544E-4
147 58 1.6331462079362345E-4
147 59 1.801900023241393E-4
147 60 1.9858834912484408E-4
147 61 2.186222153105597E-4
147 62 2.404098549935424E-4
147 63 2.64075245893548E-4
147 64 2.8974808198221224E-4
147 65 3.175637321289198E-4
147 66 3.4766316169206583E-4
147 67 3.801928140025063E-4
147 68 4.153044487175457E-4
147 69 4.531549340864822E-4
147 70 4.939059902648149E-4
147 71 5.377238809458774E-4
147 72 5.847790507477894E-4
147 73 6.352457060019391E-4
147 74 6.893013368380249E-4
147 75 7.471261787510978E-4
147 76 8.089026121686099E-4
147 77 8.748144989104668E-4
147 78 9.450464548521614E-4
147 79 1.0197830585595082E-3
147 80 1.0992079961619481E-3
147 81 1.183503143267951E-3
147 82 1.2728475852982531E-3
147 83 1.367416578217387E-3
147 84 1.4673804522774983E-3
147 85 1.5729034620464647E-3
147 86 1.6841425866698377E-3
147 87 1.8012462850076334E-3
147 88 1.9243532109863046E-3
147 89 2.0535908952067335E-3
147 90 2.1890743995435897E-3
147 91 2.330904952152349E-3
147 92 2.4791685709596527E-3
147 93 2.633934684342309E-3
147 94 2.795254758291549E-3
147 95 2.9631609399036283E-3
147 96 3.1376647275268414E-3
147 97 3.3187556783199905E-3
147 98 3.5064001643299895E-3
147 99 3.7005401884686075E-3
147 100 3.901092271952699E-3
147 101 4.107946424861764E-3
147 102 4.32096521145483E-3
147 103 4.53998292177005E-3
147 104 4.76480486080035E-3
147 105 4.995206766193312E-3
147 106 5.230934364960887E-3
147 107 5.471703079103E-3
147 108 5.717197889348822E-3
147 109 5.967073365401693E-3
147 110 6.220953870141162E-3
147 111 6.478433944192542E-3
147 112 6.739078876126403E-3
147 113 7.002425462304573E-3
147 114 7.267982959054018E-3
147 115 7.535234228435287E-3
147 116 7.803637077389106E-3
147 117 8.072625788505754E-3
147 118 8.341612839080366E-3
147 119 8.609990803507927E-3
147 120 8.87713443244969E-3
147 121 9.142402900584164E-3
147 122 9.405142213157209E-3
147 123 9.664687759983982E-3
147 124 9.920367004047512E-3
147 125 1.0171502290401539E-2
147 126 1.0417413759735424E-2
147 127 1.0657422349712599E-2
147 128 1.0890852866066733E-2
147 129 1.1117037104445721E-2
147 130 1.1335317003146307E-2
147 131 1.1545047806193727E-2
147 132 1.174560121570136E-2
147 133 1.1936368512104304E-2
147 134 1.211676362070477E-2
147 135 1.2286226103001317E-2
147 136 1.2444224051501605E-2
147 137 1.2590256867140038E-2
147 138 1.2723857899036553E-2
147 139 1.2844596927137332E-2
147 140 1.2952082469266922E-2
147 141 1.3045963895286368E-2
147 142 1.3125933332383884E-2
147 143 1.3191727347011566E-2
147 144 1.3243128390610169E-2
147 145 1.3279965998018756E-2
147 146 1.33021177293305E-2
147 147 1.330950984791183E-2
147 148 1.33021177293305E-2
147 149 1.3279965998018756E-2
147 150 1.3243128390610169E-2
147 151 1.3191727347011566E-2
147 152 1.3125933332383884E-2
147 153 1.3045963895286368E-2
147 154 1.3003535971434476E-2
147 155 1.2902065261240632E-2
147 156 1.278797291079477E-2
147 157 1.2661707864464754E-2
147 158 1.2523761987074033E-2
147 159 1.237466794610845E-2
147 160 1.2214996914243275E-2
147 161 1.2045356108896722E-2
147 162 1.1866386186354438E-2
147 163 1.1678758508664736E-2
147 164 1.148317230197246E-2
147 165 1.1280351725239345E-2
147 166 1.1071042868390873E-2
147 167 1.0856010698837444E-2
147 168 1.0636035975045983E-2
147 169 1.041191214539508E-2
147 170 1.018444224994106E-2
147 171 9.954435841966194E-3
147 172 9.722705945286129E-3
147 173 9.49006606227623E-3
147 174 9.257327246452196E-3
147 175 9.025295252225472E-3
147 176 8.794767773166848E-3
147 177 8.56653177877057E-3
147 178 8.341360958334983E-3
147 179 8.120013279183077E-3
147 180 7.903228665055956E-3
147 181 7.691726799142598E-3
147 182 7.486205054877501E-3
147 183 7.287336556361152E-3
147 184 7.095768369051628E-3
147 185 6.912119820253855E-3
147 186 6.73698094790833E-3
147 187 6.5709110752649475E-3
147 188 6.414437508228838E-3
147 189 6.268054351491565E-3
147 190 6.132221439017737E-3
147 191 6.007363374047548E-3
147 192 5.893868673501295E-3
147 193 5.792089011531602E-3
147 194 5.702338556960332E-3
147 195 5.6248933994549125E-3
147 196 5.559991059536723E-3
147 197 5.50783007786358E-3
147 198 5.468569679679191E-3
147 199 5.4423295108632815E-3
147 200 5.429189442633858E-3
148 49 5.746833410330014E-5
148 50 6.41150117582164E-5
148 51 7.145099732471724E-5
148 52 7.953793557242816E-5
148 53 8.844184310713185E-5
148 54 9.8233293538506E-5
148 55 1.0898759679241744E-4
148 56 1.2078497065307907E-4
148 57 1.3371070247100844E-4
148 58 1.478552988261544E-4
148 59 1.6331462079362345E-4
148 60 1.801900023241393E-4
148 61 1.9858834912484408E-4
148 62 2.186222153105597E-4
148 63 2.404098549935424E-4
148 64 2.64075245893548E-4
148 65 2.8974808198221224E-4
148 66 3.175637321289198E-4
148 67 3.4766316169206583E-4
148 68 3.801928140025063E-4
148 69 4.153044487175457E-4
148 70 4.531549340864822E-4
148 71 4.939059902648149E-4
148 72 5.377238809458774E-4
148 73 5.847790507477894E-4
148 74 6.352457060019391E-4
148 75 6.893013368380249E-4
148 76 7.471261787510978E-4
148 77 8.089026121686099E-4
148 78 8.748144989104668E-4
148 79 9.450464548521614E-4
148 80 1.0197830585595082E-3
148 81 1.0992079961619481E-3
148 82 1.183503143267951E-3
148 83 1.2728475852982531E-3
148 84 1.367416578217387E-3
148 85 1.4673804522774983E-3
148 86 1.5729034620464647E-3
148 87 1.6841425866698377E-3
148 88 1.8012462850076334E-3
148 89 1.9243532109863046E-3
148 90 2.0535908952067335E-3
148 91 2.1890743995435897E-3
148 92 2.330904952152349E-3
148 93 2.4791685709596527E-3
148 94 2.633934684342309E-3
148 95 2.795254758291549E-3
148 96 2.9631609399036283E-3
148 97 3.1376647275268414E-3
148 98 3.3187556783199905E-3
148 99 3.5064001643299895E-3
148 100 3.7005401884686075E-3
148 101 3.901092271952699E-3
148 102 4.107946424861764E-3
148 103 4.32096521145483E-3
148 104 4.53998292177005E-3
148 105 4.76480486080035E-3
148 106 4.995206766193312E-3
148 107 5.230934364960887E-3
148 108 5.471703079103E-3
148 109 5.717197889348822E-3
148 110 5.967073365401693E-3
148 111 6.220953870141162E-3
148 112 6.478433944192542E-3
148 113 6.739078876126403E-3
148 114 7.002425462304573E-3
148 115 7.267982959054018E-3
148 116 7.535234228435287E-3
148 117 7.803637077389106E-3
148 118 8.072625788505754E-3
148 119 8.341612839080366E-3
148 120 8.609990803507927E-3
148 121 8.87713443244969E-3
148 122 9.142402900584164E-3
148 123 9.405142213157209E-3
148 124 9.664687759983982E-3
148 125 9.920367004047512E-3
148 126 1.0171502290401539E-2
148 127 1.0417413759735424E-2
148 128 1.0657422349712599E-2
148 129 1.0890852866066733E-2
148 130 1.1117037104445721E-2
148 131 1.1335317003146307E-2
148 132 1.1545047806193727E-2
148 133 1.174560121570136E-2
148 134 1.1936368512104304E-2
148 135 1.211676362070477E-2
148 136 1.2286226103001317E-2
148 137 1.2444224051501605E-2
148 138 1.2590256867140038E-2
148 139 1.2723857899036553E-2
148 140 1.2844596927137332E-2
148 141 1.2952082469266922E-2
148 142 1.3045963895286368E-2
148 143 1.3125933332383884E-2
148 144 1.3191727347011566E-2
148 145 1.3243128390610169E-2
148 146 1.3279965998018756E-2
148 147 1.33021177293305E-2
148 148 1.330950984791183E-2
148 149 1.33021177293305E-2
148 150 1.3279965998018756E-2
148 151 1.3243128390610169E-2
148 152 1.3191727347011566E-2
148 153 1.3177386834551438E-2
148 154 1.3103432229389669E-2
148 155 1.3016197481025138E-2
148 156 1.2916047924462049E-2
148 157 1.2803395834608981E-2
148 158 1.267869871024717E-2
148 159 1.2542457345040111E-2
148 160 1.2395213699793734E-2
148 161 1.2237548591357849E-2
148 162 1.2070079214575313E-2
148 163 1.1893456514527513E-2
148 164 1.1708362426987352E-2
148 165 1.1515507005470446E-2
148 166 1.1315625453570566E-2
148 167 1.1109475081377293E-2
148 168 1.089783220470614E-2
148 169 1.0681489005628972E-2
148 170 1.046125037238375E-2
148 171 1.0237930736176432E-2
148 172 1.0012350921676048E-2
148 173 9.785335027159715E-3
148 174 9.55770734930171E-3
148 175 9.330289366536173E-3
148 176 9.103896793772742E-3
148 177 8.879336720026243E-3
148 178 8.657404839253544E-3
148 179 8.438882783391045E-3
148 180 8.224535565273312E-3
148 181 8.015109137805116E-3
148 182 7.811328074473182E-3
148 183 7.61389337503687E-3
148 184 7.423480399044704E-3
148 185 7.2407369287006695E-3
148 186 7.066281361563641E-3
148 187 6.900701032616773E-3
148 188 6.744550664401253E-3
148 189 6.5983509431782736E-3
148 190 6.4625872184708106E-3
148 191 6.337708322846815E-3
148 192 6.224125508439888E-3
148 193 6.122211496462463E-3
148 194 6.032299635848068E-3
148 195 5.954683167159433E-3
148 196 5.889614588012198E-3
148 197 5.837305116482339E-3
148 198 5.797924249279643E-3
148 199 5.77159941186915E-3
148 200 5.758415698195177E-3
149 50 5.746833410330014E-5
149 51 6.41150117582164E-5
149 52 7.145099732471724E-5
149 53 7.953793557242816E-5
149 54 8.844184310713185E-5
149 55 9.8233293538506E-5
149 56 1.0898759679241744E-4
149 57 1.2078497065307907E-4
149 58 1.3371070247100844E-4
149 59 1.478552988261544E-4
149 60 1.6331462079362345E-4
149 61 1.801900023241393E-4
149 62 1.9858834912484408E-4
149 63 2.186222153105597E-4
149 64 2.404098549935424E-4
149 65 2.64075245893548E-4
149 66 2.8974808198221224E-4
149 67 3.175637321289198E-4
149 68 3.4766316169206583E-4
149 69 3.801928140025063E-4
149 70 4.153044487175457E-4
149 71 4.531549340864822E-4
149 72 4.939059902648149E-4
149 73 5.377238809458774E-4
149 74 5.847790507477894E-4
149 75 6.352457060019391E-4
149 76 6.893013368380249E-4
149 77 7.471261787510978E-4
149 78 8.089026121686099E-4
149 79 8.748144989104668E-4
149 80 9.450464548521614E-4
149 81 1.0197830585595082E-3
149 82 1.0992079961619481E-3
149 83 1.183503143267951E-3
149 84 1.2728475852982531E-3
149 85 1.367416578217387E-3
149 86 1.4673804522774983E-3
149 87 1.5729034620464647E-3
149 88 1.6841425866698377E-3
149 89 1.8012462850076334E-3
149 90 1.9243532109863046E-3
149 91 2.0535908952067335E-3
149 92 2.1890743995435897E-3
149 93 2.330904952152349E-3
149 94 2.4791685709596527E-3
149 95 2.633934684342309E-3
149 96 2.795254758291549E-3
149 97 2.9631609399036283E-3
149 98 3.1376647275268414E-3
149 99 3.3187556783199905E-3
149 100 3.5064001643299895E-3
149 101 3.7005401884686075E-3
149 102 3.901092271952699E-3
149 103 4.107946424861764E-3
149 104 4.32096521145483E-3
149 105 4.53998292177005E-3
149 106 4.76480486080035E-3
149 107 4.995206766193312E-3
149 108 5.230934364960887E-3
149 109 5.471703079103E-3
149 110 5.717197889348822E-3
149 111 5.967073365401693E-3
149 112 6.220953870141162E-3
149 113 6.478433944192542E-3
149 114 6.739078876126403E-3
149 115 7.002425462304573E-3
149 116 7.267982959054018E-3
149 117 7.535234228435287E-3
149 118 7.803637077389106E-3
149 119 8.072625788505754E-3
149 120 8.341612839080366E-3
149 121 8.609990803507927E-3
149 122 8.87713443244969E-3
149 123 9.142402900584164E-3
149 124 9.405142213157209E-3
149 125 9.664687759983982E-3
149 126 9.920367004047512E-3
149 127 1.0171502290401539E-2
149 128 1.0417413759735424E-2
149 129 1.0657422349712599E-2
149 130 1.0890852866066733E-2
149 131 1.1117037104445721E-2
149 132 1.1335317003146307E-2
149 133 1.1545047806193727E-2
149 134 1.174560121570136E-2
149 135 1.1936368512104304E-2
149 136 1.211676362070477E-2
149 137 1.2286226103001317E-2
149 138 1.2444224051501605E-2
149 139 1.2590256867140038E-2
149 140 1.2723857899036553E-2
149 141 1.2844596927137332E-2
149 142 1.2952082469266922E-2
149 143 1.3045963895286368E-2
149 144 1.3125933332383884E-2
149 145 1.3191727347011566E-2
149 146 1.3243128390610169E-2
149 147 1.3279965998018756E-2
149 148 1.33021177293305E-2
149 149 1.330950984791183E-2
149 150 1.33021177293305E-2
149 151 1.3279965998018756E-2
149 152 1.3294581892777723E-2
149 153 1.3249195681114866E-2
149 154 1.31900483441421E-2
149 155 1.3117414892611085E-2
149 156 1.303162040483935E-2
149 157 1.2933038770244465E-2
149 158 1.2822091192575059E-2
149 159 1.2699244463932455E-2
149 160 1.2565009022154685E-2
149 161 1.2419936805472325E-2
149 162 1.2264618919530923E-2
149 163 1.2099683132897929E-2
149 164 1.1925791218025499E-2
149 165 1.1743636155318572E-2
149 166 1.1553939218456866E-2
149 167 1.1357446959439263E-2
149 168 1.1154928111960281E-2
149 169 1.0947170431694811E-2
149 170 1.0734977491864344E-2
149 171 1.0519165452093604E-2
149 172 1.0300559818050017E-2
149 173 1.0079992208701528E-2
149 174 9.858297147243691E-3
149 175 9.63630889084898E-3
149 176 9.414858313395568E-3
149 177 9.194769854255717E-3
149 178 8.976858545082305E-3
149 179 8.761927125343778E-3
149 180 8.550763256140204E-3
149 181 8.344136840603898E-3
149 182 8.142797457964484E-3
149 183 7.947471917156734E-3
149 184 7.758861934685911E-3
149 185 7.57764194035449E-3
149 186 7.404457013409113E-3
149 187 7.239920950699946E-3
149 188 7.084614467566209E-3
149 189 6.939083531380498E-3
149 190 6.803837827007352E-3
149 191 6.6793493528631495E-3
149 192 6.566051145807984E-3
149 193 6.464336132756354E-3
149 194 6.374556106661563E-3
149 195 6.297020824405353E-3
149 196 6.231997224105048E-3
149 197 6.179708759428261E-3
149 198 6.140334848672298E-3
149 199 6.11401043661154E-3
149 200 6.100825667430469E-3
150 51 5.746833410330014E-5
150 52 6.41150117582164E-5
150 53 7.145099732471724E-5
150 54 7.953793557242816E-5
150 55 8.844184310713185E-5
150 56 9.8233293538506E-5
150 57 1.0898759679241744E-4
150 58 1.2078497065307907E-4
150 59 1.3371070247100844E-4
150 60 1.478552988261544E-4
150 61 1.6331462079362345E-4
150 62 1.801900023241393E-4
150 63 1.9858834912484408E-4
150 64 2.186222153105597E-4
150 65 2.404098549935424E-4
150 66 2.64075245893548E-4
150 67 2.8974808198221224E-4
150 68 3.175637321289198E-4
150 69 3.4766316169206583E-4
150 70 3.801928140025063E-4
150 71 4.153044487175457E-4
150 72 4.531549340864822E-4
150 73 4.939059902648149E-4
150 74 5.377238809458774E-4
150 75 5.847790507477894E-4
150 76 6.352457060019391E-4
150 77 6.893013368380249E-4
150 78 7.471261787510978E-4
150 79 8.089026121686099E-4
150 80 8.748144989104668E-4
150 81 9.450464548521614E-4
150 82 1.0197830585595082E-3
150 83 1.0992079961619481E-3
150 84 1.183503143267951E-3
150 85 1.2728475852982531E-3
150 86 1.367416578217387E-3
150 87 1.4673804522774983E-3
150 88 1.5729034620464647E-3
150 89 1.6841425866698377E-3
150 90 1.8012462850076334E-3
150 91 1.9243532109863046E-3
150 92 2.0535908952067335E-3
150 93 2.1890743995435897E-3
150 94 2.330904952152349E-3
150 95 2.4791685709596527E-3
150 96 2.633934684342309E-3
150 97 2.795254758291549E-3
150 98 2.9631609399036283E-3
150 99 3.1376647275268414E-3
150 100 3.3187556783199905E-3
150 101 3.5064001643299895E-3
150 102 3.7005401884686075E-3
150 103 3.901092271952699E-3
150 104 4.107946424861764E-3
150 105 4.32096521145483E-3
150 106 4.53998292177005E-3
150 107 4.76480486080035E-3
150 108 4.995206766193312E-3
150 109 5.230934364960887E-3
150 110 5.471703079103E-3
150 111 5.717197889348822E-3
150 112 5.967073365401693E-3
150 113 6.220953870141162E-3
150 114 6.478433944192542E-3
150 115 6.739078876126403E-3
150 116 7.002425462304573E-3
150 117 7.267982959054018E-3
150 118 7.535234228435287E-3
150 119 7.803637077389106E-3
150 120 8.072625788505754E-3
150 121 8.341612839080366E-3
150 122 8.609990803507927E-3
150 123 8.87713443244969E-3
150 124 9.142402900584164E-3
150 125 9.405142213157209E-3
150 126 9.664687759983982E-3
150 127 9.920367004047512E-3
150 128 1.0171502290401539E-2
150 129 1.0417413759735424E-2
150 130 1.0657422349712599E-2
150 131 1.0890852866066733E-2
150 132 1.1117037104445721E-2
150 133 1.1335317003146307E-2
150 134 1.1545047806193727E-2
150 135 1.174560121570136E-2
150 136 1.1936368512104304E-2
150 137 1.211676362070477E-2
150 138 1.2286226103001317E-2
150 139 1.2444224051501605E-2
150 140 1.2590256867140038E-2
150 141 1.2723857899036553E-2
150 142 1.2844596927137332E-2
150 143 1.2952082469266922E-2
150 144 1.3045963895286368E-2
150 145 1.3125933332383884E-2
150 146 1.3191727347011566E-2
150 147 1.3243128390610169E-2
150 148 1.3279965998018756E-2
150 149 1.33021177293305E-2
150 150 1.330950984791183E-2
150 151 1.3353571231498053E-2
150 152 1.3337434332122056E-2
150 153 1.3307243402368385E-2
150 154 1.3263178344336282E-2
150 155 1.3205471267956312E-2
150 156 1.3134405738393501E-2
150 157 1.3050315762805428E-2
150 158 1.295358452392975E-2
150 159 1.2844642869689633E-2
150 160 1.2723967569611047E-2
150 161 1.2592079350327759E-2
150 162 1.244954072379494E-2
150 163 1.2296953623028909E-2
150 164 1.213495686122915E-2
150 165 1.1964223431011918E-2
150 166 1.1785457661187269E-2
150 167 1.1599392249039855E-2
150 168 1.1406785186427933E-2
150 169 1.1208416598195653E-2
150 170 1.1005085511404665E-2
150 171 1.079760657373793E-2
150 172 1.0586806739119084E-2
150 173 1.0373521938133994E-2
150 174 1.0158593750248798E-2
150 175 9.942866094103086E-3
150 176 9.727181951331954E-3
150 177 9.51238013845163E-3
150 178 9.29929214034595E-3
150 179 9.088739017831464E-3
150 180 8.881528400674363E-3
150 181 8.678451576299573E-3
150 182 8.480280683287449E-3
150 183 8.287766017613525E-3
150 184 8.10163345846652E-3
150 185 7.922582019394353E-3
150 186 7.7512815294907954E-3
150 187 7.588370448358549E-3
150 188 7.4344538176791914E-3
150 189 7.290101351395287E-3
150 190 7.155845665772837E-3
150 191 7.03218064996852E-3
150 192 6.919559977179617E-3
150 193 6.818395756007084E-3
150 194 6.729057321313639E-3
150 195 6.651870163607179E-3
150 196 6.5871149958214165E-3
150 197 6.535026956295008E-3
150 198 6.495794946760156E-3
150 199 6.469561104233618E-3
150 200 6.456420405846832E-3
151 52 5.746833410330014E-5
151 53 6.41150117582164E-5
151 54 7.145099732471724E-5
151 55 7.953793557242816E-5
151 56 8.844184310713185E-5
151 57 9.8233293538506E-5
151 58 1.0898759679241744E-4
151 59 1.2078497065307907E-4
151 60 1.3371070247100844E-4
151 61 1.478552988261544E-4
151 62 1.6331462079362345E-4
151 63 1.801900023241393E-4
151 64 1.9858834912484408E-4
151 65 2.186222153105597E-4
151 66 2.404098549935424E-4
151 67 2.64075245893548E-4
151 68 2.8974808198221224E-4
151 69 3.175637321289198E-4
151 70 3.4766316169206583E-4
151 71 3.801928140025063E-4
151 72 4.153044487175457E-4
151 73 4.531549340864822E-4
151 74 4.939059902648149E-4
151 75 5.377238809458774E-4
151 76 5.847790507477894E-4
151 77 6.352457060019391E-4
151 78 6.893013368380249E-4
151 79 7.471261787510978E-4
151 80 8.089026121686099E-4
151 81 8.748144989104668E-4
151 82 9.450464548521614E-4
151 83 1.0197830585595082E-3
151 84 1.0992079961619481E-3
151 85 1.183503143267951E-3
151 86 1.2728475852982531E-3
151 87 1.367416578217387E-3
151 88 1.4673804522774983E-3
151 89 1.5729034620464647E-3
151 90 1.6841425866698377E-3
151 91 1.8012462850076334E-3
151 92 1.9243532109863046E-3
151 93 2.0535908952067335E-3
151 94 2.1890743995435897E-3
151 95 2.330904952152349E-3
151 96 2.4791685709596527E-3
151 97 2.633934684342309E-3
151 98 2.795254758291549E-3
151 99 2.9631609399036283E-3
151 100 3.1376647275268414E-3
151 101 3.3187556783199905E-3
151 102 3.5064001643299895E-3
151 103 3.7005401884686075E-3
151 104 3.901092271952699E-3
151 105 4.107946424861764E-3
151 106 4.32096521145483E-3
151 107 4.53998292177005E-3
151 108 4.76480486080035E-3
151 109 4.995206766193312E-3
151 110 5.230934364960887E-3
151 111 5.471703079103E-3
151 112 5.717197889348822E-3
151 113 5.967073365401693E-3
151 114 6.220953870141162E-3
151 115 6.478433944192542E-3
151 116 6.739078876126403E-3
151 117 7.002425462304573E-3
151 118 7.267982959054018E-3
151 119 7.535234228435287E-3
151 120 7.803637077389106E-3
151 121 8.072625788505754E-3
151 122 8.341612839080366E-3
151 123 8.609990803507927E-3
151 124 8.87713443244969E-3
151 125 9.142402900584164E-3
151 126 9.405142213157209E-3
151 127 9.664687759983982E-3
151 128 9.920367004047512E-3
151 129 1.0171502290401539E-2
151 130 1.0417413759735424E-2
151 131 1.0657422349712599E-2
151 132 1.0890852866066733E-2
151 133 1.1117037104445721E-2
151 134 1.1335317003146307E-2
151 135 1.1545047806193727E-2
151 136 1.174560121570136E-2
151 137 1.1936368512104304E-2
151 138 1.211676362070477E-2
151 139 1.2286226103001317E-2
151 140 1.2444224051501605E-2
151 141 1.2590256867140038E-2
151 142 1.2723857899036553E-2
151 143 1.2844596927137332E-2
151 144 1.2952082469266922E-2
151 145 1.3045963895286368E-2
151 146 1.3125933332383884E-2
151 147 1.3191727347011566E-2
151 148 1.3243128390610169E-2
151 149 1.3279965998018756E-2
151 150 1.3353571231498053E-2
151 151 1.336697818201513E-2
151 152 1.3366232741088715E-2
151 153 1.3351416995343472E-2
151 154 1.3322666326182597E-2
151 155 1.3280169190118698E-2
151 156 1.322416662592239E-2
151 157 1.3154951492078786E-2
151 158 1.3072867439920002E-2
151 159 1.297830762960834E-2
151 160 1.2871713197862707E-2
151 161 1.275357148793366E-2
151 162 1.2624414053825745E-2
151 163 1.2484814452126161E-2
151 164 1.2335385836015329E-2
151 165 1.2176778367097846E-2
151 166 1.2009676461594907E-2
151 167 1.183479588817594E-2
151 168 1.1652880735275227E-2
151 169 1.1464700266137787E-2
151 170 1.127104568006924E-2
151 171 1.1072726798430145E-2
151 172 1.0870568693821907E-2
151 173 1.0665408280666354E-2
151 174 1.0458090884993389E-2
151 175 1.0249466810731772E-2
151 176 1.0040387919159148E-2
151 177 9.831704237422188E-3
151 178 9.624260611200789E-3
151 179 9.418893415676536E-3
151 180 9.216427337990832E-3
151 181 9.017672243357915E-3
151 182 8.823420135948614E-3
151 183 8.634442224597236E-3
151 184 8.451486102321968E-3
151 185 8.275273047602826E-3
151 186 8.10649545434379E-3
151 187 7.94581439647004E-3
151 188 7.793857332187627E-3
151 189 7.65121595207153E-3
151 190 7.5184441743564555E-3
151 191 7.396056290089305E-3
151 192 7.28452526016762E-3
151 193 7.184281165736902E-3
151 194 7.0957098129526995E-3
151 195 7.019151492729702E-3
151 196 6.954899895797138E-3
151 197 6.903201183153313E-3
151 198 6.8642532118563275E-3
151 199 6.838204915995448E-3
151 200 6.8251558426499805E-3
152 53 5.746833410330014E-5
152 54 6.41150117582164E-5
152 55 7.145099732471724E-5
152 56 7.953793557242816E-5
152 57 8.844184310713185E-5
152 58 9.8233293538506E-5
152 59 1.0898759679241744E-4
152 60 1.2078497065307907E-4
152 61 1.3371070247100844E-4
152 62 1.478552988261544E-4
152 63 1.6331462079362345E-4
152 64 1.801900023241393E-4
152 65 1.9858834912484408E-4
152 66 2.186222153105597E-4
152 67 2.404098549935424E-4
152 68 2.64075245893548E-4
152 69 2.8974808198221224E-4
152 70 3.175637321289198E-4
152 71 3.4766316169206583E-4
152 72 3.801928140025063E-4
152 73 4.153044487175457E-4
152 74 4.531549340864822E-4
152 75 4.939059902648149E-4
152 76 5.377238809458774E-4
152 77 5.847790507477894E-4
152 78 6.352457060019391E-4
152 79 6.893013368380249E-4
152 80 7.471261787510978E-4
152 81 8.089026121686099E-4
152 82 8.748144989104668E-4
152 83 9.450464548521614E-4
152 84 1.0197830585595082E-3
152 85 1.0992079961619481E-3
152 86 1.183503143267951E-3
152 87 1.2728475852982531E-3
152 88 1.367416578217387E-3
152 89 1.4673804522774983E-3
152 90 1.5729034620464647E-3
152 91 1.6841425866698377E-3
152 92 1.8012462850076334E-3
152 93 1.9243532109863046E-3
152 94 2.0535908952067335E-3
152 95 2.1890743995435897E-3
152 96 2.330904952152349E-3
152 97 2.4791685709596527E-3
152 98 2.633934684342309E-3
152 99 2.795254758291549E-3
152 100 2.9631609399036283E-3
152 101 3.1376647275268414E-3
152 102 3.3187556783199905E-3
152 103 3.5064001643299895E-3
152 104 3.7005401884686075E-3
152 105 3.901092271952699E-3
152 106 4.107946424861764E-3
152 107 4.32096521145483E-3
152 108 4.53998292177005E-3
152 109 4.76480486080035E-3
152 110 4.995206766193312E-3
152 111 5.230934364960887E-3
152 112 5.471703079103E-3
152 113 5.717197889348822E-3
152 114 5.967073365401693E-3
152 115 6.220953870141162E-3
152 116 6.478433944192542E-3
152 117 6.739078876126403E-3
152 118 7.002425462304573E-3
152 119 7.267982959054018E-3
152 120 7.535234228435287E-3
152 121 7.803637077389106E-3
152 122 8.072625788505754E-3
152 123 8.341612839080366E-3
152 124 8.609990803507927E-3
152 125 8.87713443244969E-3
152 126 9.142402900584164E-3
152 127 9.405142213157209E-3
152 128 9.664687759983982E-3
152 129 9.920367004047512E-3
152 130 1.0171502290401539E-2
152 131 1.0417413759735424E-2
152 132 1.0657422349712599E-2
152 133 1.0890852866066733E-2
152 134 1.1117037104445721E-2
152 135 1.1335317003146307E-2
152 136 1.1545047806193727E-2
152 137 1.174560121570136E-2
152 138 1.1936368512104304E-2
152 139 1.211676362070477E-2
152 140 1.2286226103001317E-2
152 141 1.2444224051501605E-2
152 142 1.2590256867140038E-2
152 143 1.2723857899036553E-2
152 144 1.2844596927137332E-2
152 145 1.2952082469266922E-2
152 146 1.3045963895286368E-2
152 147 1.3125933332383884E-2
152 148 1.3191727347011566E-2
152 149 1.3294581892777723E-2
152 150 1.3337434332122056E-2
152 151 1.3366232741088715E-2
152 152 1.3380960845236546E-2
152 153 1.3381655664902927E-2
152 154 1.3368407841125888E-2
152 155 1.3341361684148675E-2
152 156 1.3300714943803983E-2
152 157 1.3246718303036963E-2
152 158 1.3179674597757377E-2
152 159 1.3099937768093076E-2
152 160 1.3007911547930955E-2
152 161 1.2904047901360693E-2
152 162 1.2788845216264883E-2
152 163 1.2662846266812165E-2
152 164 1.2526635957994858E-2
152 165 1.2380838866598317E-2
152 166 1.2226116594086517E-2
152 167 1.2063164947830279E-2
152 168 1.1892710967885793E-2
152 169 1.1715509817148813E-2
152 170 1.1532341553163267E-2
152 171 1.1344007800153216E-2
152 172 1.1151328339977415E-2
152 173 1.0955137640681302E-2
152 174 1.0756281341149329E-2
152 175 1.055561271004945E-2
152 176 1.0353989096822006E-2
152 177 1.0152268391908307E-2
152 178 9.951305512752773E-3
152 179 9.751948931360157E-3
152 180 9.555037258360087E-3
152 181 9.361395897639874E-3
152 182 9.171833784667701E-3
152 183 8.987140220657056E-3
152 184 8.808081813733541E-3
152 185 8.635399537271405E-3
152 186 8.46980591458207E-3
152 187 8.311982338172867E-3
152 188 8.16257653086238E-3
152 189 8.022200155148795E-3
152 190 7.891426576387998E-3
152 191 7.770788784555556E-3
152 192 7.66077747864659E-3
152 193 7.561839317113236E-3
152 194 7.474375337152965E-3
152 195 7.39873954514266E-3
152 196 7.335237680061599E-3
152 197 7.284126151358458E-3
152 198 7.245611152388606E-3
152 199 7.21984795027269E-3
152 200 7.206940352798597E-3
153 54 5.746833410330014E-5
153 55 6.41150117582164E-5
153 56 7.145099732471724E-5
153 57 7.953793557242816E-5
153 58 8.844184310713185E-5
153 59 9.8233293538506E-5
153 60 1.0898759679241744E-4
153 61 1.2078497065307907E-4
153 62 1.3371070247100844E-4
153 63 1.478552988261544E-4
153 64 1.6331462079362345E-4
153 65 1.801900023241393E-4
153 66 1.9858834912484408E-4
153 67 2.186222153105597E-4
153 68 2.404098549935424E-4
153 69 2.64075245893548E-4
153 70 2.8974808198221224E-4
153 71 3.175637321289198E-4
153 72 3.4766316169206583E-4
153 73 3.801928140025063E-4
153 74 4.153044487175457E-4
153 75 4.531549340864822E-4
153 76 4.939059902648149E-4
153 77 5.377238809458774E-4
153 78 5.847790507477894E-4
153 79 6.352457060019391E-4
153 80 6.893013368380249E-4
153 81 7.471261787510978E-4
153 82 8.089026121686099E-4
153 83 8.748144989104668E-4
153 84 9.450464548521614E-4
153 85 1.0197830585595082E-3
153 86 1.0992079961619481E-3
153 87 1.183503143267951E-3
153 88 1.2728475852982531E-3
153 89 1.367416578217387E-3
153 90 1.4673804522774983E-3
153 91 1.5729034620464647E-3
153 92 1.6841425866698377E-3
153 93 1.8012462850076334E-3
153 94 1.9243532109863046E-3
153 95 2.0535908952067335E-3
153 96 2.1890743995435897E-3
153 97 2.330904952152349E-3
153 98 2.4791685709596527E-3
153 99 2.633934684342309E-3
153 100 2.795254758291549E-3
153 101 2.9631609399036283E-3
153 102 3.1376647275268414E-3
153 103 3.3187556783199905E-3
153 104 3.5064001643299895E-3
153 105 3.7005401884686075E-3
153 106 3.901092271952699E-3
153 107 4.107946424861764E-3
153 108 4.32096521145483E-3
153 109 4.53998292177005E-3
153 110 4.76480486080035E-3
153 111 4.995206766193312E-3
153 112 5.230934364960887E-3
153 113 5.471703079103E-3
153 114 5.717197889348822E-3
153 115 5.967073365401693E-3
153 116 6.220953870141162E-3
153 117 6.478433944192542E-3
153 118 6.739078876126403E-3
153 119 7.002425462304573E-3
153 120 7.267982959054018E-3
153 121 7.535234228435287E-3
153 122 7.803637077389106E-3
153 123 8.072625788505754E-3
153 124 8.341612839080366E-3
153 125 8.609990803507927E-3
153 126 8.87713443244969E-3
153 127 9.142402900584164E-3
153 128 9.405142213157209E-3
153 129 9.664687759983982E-3
153 130 9.920367004047512E-3
153 131 1.0171502290401539E-2
153 132 1.0417413759735424E-2
153 133 1.0657422349712599E-2
153 134 1.0890852866066733E-2
153 135 1.1117037104445721E-2
153 136 1.1335317003146307E-2
153 137 1.1545047806193727E-2
153 138 1.174560121570136E-2
153 139 1.1936368512104304E-2
153 140 1.211676362070477E-2
153 141 1.2286226103001317E-2
153 142 1.2444224051501605E-2
153 143 1.2590256867140038E-2
153 144 1.2723857899036553E-2
153 145 1.2844596927137332E-2
153 146 1.2952082469266922E-2
153 147 1.3045963895286368E-2
153 148 1.3177386834551438E-2
153 149 1.3249195681114866E-2
153 150 1.3307243402368385E-2
153 151 1.3351416995343472E-2
153 152 1.3381655664902927E-2
153 153 1.3397951691018962E-2
153 154 1.3400351022869005E-2
153 155 1.3388953594811173E-2
153 156 1.3363913361263248E-2
153 157 1.3325438049482575E-2
153 158 1.3273788631210037E-2
153 159 1.3209278516079993E-2
153 160 1.3132272471591062E-2
153 161 1.3043185276262177E-2
153 162 1.2942480114347113E-2
153 163 1.283066672213358E-2
153 164 1.2708299297395153E-2
153 165 1.2575974184983529E-2
153 166 1.243432735283369E-2
153 167 1.228403167379637E-2
153 168 1.2125794029703865E-2
153 169 1.1960352254911273E-2
153 170 1.178847193723279E-2
153 171 1.1610943094710537E-2
153 172 1.142857674701261E-2
153 173 1.1242201400460389E-2
153 174 1.1052659465737363E-2
153 175 1.0860803627239563E-2
153 176 1.066749318279861E-2
153 177 1.0473590372152591E-2
153 178 1.0279956712067675E-2
153 179 1.0087449355436325E-2
153 180 9.896917491009198E-3
153 181 9.709198799669874E-3
153 182 9.525115982348316E-3
153 183 9.345473373804007E-3
153 184 9.171053655606493E-3
153 185 9.002614680712786E-3
153 186 8.840886421100482E-3
153 187 8.68656804897441E-3
153 188 8.540325161134036E-3
153 189 8.402787155178847E-3
153 190 8.274544765347894E-3
153 191 8.156147764945283E-3
153 192 8.048102841501172E-3
153 193 7.950871650062653E-3
153 194 7.864869049303195E-3
153 195 7.790461524484861E-3
153 196 7.727965800703979E-3
153 197 7.6776476492968915E-3
153 198 7.639720889774821E-3
153 199 7.614346589191754E-3
153 200 7.601632460421307E-3
154 55 5.746833410330014E-5
154 56 6.41150117582164E-5
154 57 7.145099732471724E-5
154 58 7.953793557242816E-5
154 59 8.844184310713185E-5
154 60 9.8233293538506E-5
154 61 1.0898759679241744E-4
154 62 1.2078497065307907E-4
154 63 1.3371070247100844E-4
154 64 1.478552988261544E-4
154 65 1.6331462079362345E-4
154 66 1.801900023241393E-4
154 67 1.9858834912484408E-4
154 68 2.186222153105597E-4
154 69 2.404098549935424E-4
154 70 2.64075245893548E-4
154 71 2.8974808198221224E-4
154 72 3.175637321289198E-4
154 73 3.4766316169206583E-4
154 74 3.801928140025063E-4
154 75 4.153044487175457E-4
154 76 4.531549340864822E-4
154 77 4.939059902648149E-4
154 78 5.377238809458774E-4
154 79 5.847790507477894E-4
154 80 6.352457060019391E-4
154 81 6.893013368380249E-4
154 82 7.471261787510978E-4
154 83 8.089026121686099E-4
154 84 8.748144989104668E-4
154 85 9.450464548521614E-4
154 86 1.0197830585595082E-3
154 87 1.0992079961619481E-3
154 88 1.183503143267951E-3
154 89 1.2728475852982531E-3
154 90 1.367416578217387E-3
154 91 1.4673804522774983E-3
154 92 1.5729034620464647E-3
154 93 1.6841425866698377E-3
154 94 1.8012462850076334E-3
154 95 1.9243532109863046E-3
154 96 2.0535908952067335E-3
154 97 2.1890743995435897E-3
154 98 2.330904952152349E-3
154 99 2.4791685709596527E-3
154 100 2.633934684342309E-3
154 101 2.795254758291549E-3
154 102 2.9631609399036283E-3
154 103 3.1376647275268414E-3
154 104 3.3187556783199905E-3
154 105 3.5064001643299895E-3
154 106 3.7005401884686075E-3
154 107 3.901092271952699E-3
154 108 4.107946424861764E-3
154 109 4.32096521145483E-3
154 110 4.53998292177005E-3
154 111 4.76480486080035E-3
154 112 4.995206766193312E-3
154 113 5.230934364960887E-3
154 114 5.471703079103E-3
154 115 5.717197889348822E-3
154 116 5.967073365401693E-3
154 117 6.220953870141162E-3
154 118 6.478433944192542E-3
154 119 6.739078876126403E-3
154 120 7.002425462304573E-3
154 121 7.267982959054018E-3
154 122 7.535234228435287E-3
154 123 7.803637077389106E-3
154 124 8.072625788505754E-3
154 125 8.341612839080366E-3
154 126 8.609990803507927E-3
154 127 8.87713443244969E-3
154 128 9.142402900584164E-3
154 129 9.405142213157209E-3
154 130 9.664687759983982E-3
154 131 9.920367004047512E-3
154 132 1.0171502290401539E-2
154 133 1.0417413759735424E-2
154 134 1.0657422349712599E-2
154 135 1.0890852866066733E-2
154 136 1.1117037104445721E-2
154 137 1.1335317003146307E-2
154 138 1.1545047806193727E-2
154 139 1.174560121570136E-2
154 140 1.1936368512104304E-2
154 141 1.211676362070477E-2
154 142 1.2286226103001317E-2
154 143 1.2444224051501605E-2
154 144 1.2590256867140038E-2
154 145 1.2723857899036553E-2
154 146 1.2844596927137332E-2
154 147 1.3003535971434476E-2
154 148 1.3103432229389669E-2
154 149 1.31900483441421E-2
154 150 1.3263178344336282E-2
154 151 1.3322666326182597E-2
154 152 1.3368407841125888E-2
154 153 1.3400351022869005E-2
154 154 1.3418497444704247E-2
154 155 1.3422902699983578E-2
154 156 1.3413676700489765E-2
154 157 1.3390983689436323E-2
154 158 1.3355041967805188E-2
154 159 1.3306123334708023E-2
154 160 1.3244552244411213E-2
154 161 1.3170704684577482E-2
154 162 1.3085006782130874E-2
154 163 1.2987933144930101E-2
154 164 1.288000494912225E-2
154 165 1.2761787783630525E-2
154 166 1.2633889264693382E-2
154 167 1.2496956434707275E-2
154 168 1.235167296082185E-2
154 169 1.2198756149787842E-2
154 170 1.2038953796458543E-2
154 171 1.1873040884092185E-2
154 172 1.1701816155193511E-2
154 173 1.1526098572068672E-2
154 174 1.1346723686550623E-2
154 175 1.1164539938486522E-2
154 176 1.0980404902570148E-2
154 177 1.0795181502957978E-2
154 178 1.0609734214836143E-2
154 179 1.0424925271716717E-2
154 180 1.0241610896746111E-2
154 181 1.0060637575717641E-2
154 182 9.88283838880618E-3
154 183 9.709029417297753E-3
154 184 9.540006240783251E-3
154 185 9.37654053943557E-3
154 186 9.219376815105125E-3
154 187 9.069229244061651E-3
154 188 8.926778673290878E-3
154 189 8.792669771333136E-3
154 190 8.667508343736132E-3
154 191 8.55185882229351E-3
154 192 8.446241936361346E-3
154 193 8.351132573691132E-3
154 194 8.266957837394548E-3
154 195 8.194095304864514E-3
154 196 8.132871493720153E-3
154 197 8.08356053912034E-3
154 198 8.04638308610004E-3
154 199 8.021505399923436E-3
154 200 8.009038696814463E-3
155 56 5.746833410330014E-5
155 57 6.41150117582164E-5
155 58 7.145099732471724E-5
155 59 7.953793557242816E-5
155 60 8.844184310713185E-5
155 61 9.8233293538506E-5
155 62 1.0898759679241744E-4
155 63 1.2078497065307907E-4
155 64 1.3371070247100844E-4
155 65 1.478552988261544E-4
155 66 1.6331462079362345E-4
155 67 1.801900023241393E-4
155 68 1.9858834912484408E-4
155 69 2.186222153105597E-4
155 70 2.404098549935424E-4
155 71 2.64075245893548E-4
155 72 2.8974808198221224E-4
155 73 3.175637321289198E-4
155 74 3.4766316169206583E-4
155 75 3.801928140025063E-4
155 76 4.153044487175457E-4
155 77 4.531549340864822E-4
155 78 4.939059902648149E-4
155 79 5.377238809458774E-4
155 80 5.847790507477894E-4
155 81 6.352457060019391E-4
155 82 6.893013368380249E-4
155 83 7.471261787510978E-4
155 84 8.089026121686099E-4
155 85 8.748144989104668E-4
155 86 9.450464548521614E-4
155 87 1.0197830585595082E-3
155 88 1.0992079961619481E-3
155 89 1.183503143267951E-3
155 90 1.2728475852982531E-3
155 91 1.367416578217387E-3
155 92 1.4673804522774983E-3
155 93 1.5729034620464647E-3
155 94 1.6841425866698377E-3
155 95 1.8012462850076334E-3
155 96 1.9243532109863046E-3
155 97 2.0535908952067335E-3
155 98 2.1890743995435897E-3
155 99 2.330904952152349E-3
155 100 2.4791685709596527E-3
155 101 2.633934684342309E-3
155 102 2.795254758291549E-3
155 103 2.9631609399036283E-3
155 104 3.1376647275268414E-3
155 105 3.3187556783199905E-3
155 106 3.5064001643299895E-3
155 107 3.7005401884686075E-3
155 108 3.901092271952699E-3
155 109 4.107946424861764E-3
155 110 4.32096521145483E-3
155 111 4.53998292177005E-3
155 112 4.76480486080035E-3
155 113 4.995206766193312E-3
155 114 5.230934364960887E-3
155 115 5.471703079103E-3
155 116 5.717197889348822E-3
155 117 5.967073365401693E-3
155 118 6.220953870141162E-3
155 119 6.478433944192542E-3
155 120 6.739078876126403E-3
155 121 7.002425462304573E-3
155 122 7.267982959054018E-3
155 123 7.535234228435287E-3
155 124 7.803637077389106E-3
155 125 8.072625788505754E-3
155 126 8.341612839080366E-3
155 127 8.609990803507927E-3
155 128 8.87713443244969E-3
155 129 9.142402900584164E-3
155 130 9.405142213157209E-3
155 131 9.664687759983982E-3
155 132 9.920367004047512E-3
155 133 1.0171502290401539E-2
155 134 1.0417413759735424E-2
155 135 1.0657422349712599E-2
155 136 1.0890852866066733E-2
155 137 1.1117037104445721E-2
155 138 1.1335317003146307E-2
155 139 1.1545047806193727E-2
155 140 1.174560121570136E-2
155 141 1.1936368512104304E-2
155 142 1.211676362070477E-2
155 143 1.2286226103001317E-2
155 144 1.2444224051501605E-2
155 145 1.2590256867140038E-2
155 146 1.2775311401204107E-2
155 147 1.2902065261240632E-2
155 148 1.3016197481025138E-2
155 149 1.3117414892611085E-2
155 150 1.3205471267956312E-2
155 151 1.3280169190118698E-2
155 152 1.3341361684148675E-2
155 153 1.3388953594811173E-2
155 154 1.3422902699983578E-2
155 155 1.3443220550382839E-2
155 156 1.3449973028156653E-2
155 157 1.3443280618812378E-2
155 158 1.3423318392934308E-2
155 159 1.339031569613641E-2
155 160 1.3344555547694443E-2
155 161 1.328637375027991E-2
155 162 1.321615771516047E-2
155 163 1.3134345009119544E-2
155 164 1.3041421631165473E-2
155 165 1.2937920028832104E-2
155 166 1.2824416865504111E-2
155 167 1.2701530551718862E-2
155 168 1.2569918554791252E-2
155 169 1.243027450236912E-2
155 170 1.2283325096647237E-2
155 171 1.2129826856941518E-2
155 172 1.1970562709148246E-2
155 173 1.1806338441283745E-2
155 174 1.1637979044817831E-2
155 175 1.1466324961881208E-2
155 176 1.129222825864589E-2
155 177 1.11165487452537E-2
155 178 1.094015006260702E-2
155 179 1.076389575614593E-2
155 180 1.058864535642516E-2
155 181 1.0415250485882417E-2
155 182 1.0244551010667078E-2
155 183 1.0077371255785426E-2
155 184 9.91451630112683E-3
155 185 9.756768375175591E-3
155 186 9.60488336239674E-3
155 187 9.459587439421591E-3
155 188 9.321573854260752E-3
155 189 9.191499861848163E-3
155 190 9.069983828278751E-3
155 191 8.957602515152195E-3
155 192 8.854888554483471E-3
155 193 8.762328123693243E-3
155 194 8.68035882925245E-3
155 195 8.60936780662984E-3
155 196 8.549690043280878E-3
155 197 8.501606930523303E-3
155 198 8.465345049268958E-3
155 199 8.441075193722749E-3
155 200 8.428911636316594E-3
156 57 5.746833410330014E-5
156 58 6.41150117582164E-5
156 59 7.145099732471724E-5
156 60 7.953793557242816E-5
156 61 8.844184310713185E-5
156 62 9.8233293538506E-5
156 63 1.0898759679241744E-4
156 64 1.2078497065307907E-4
156 65 1.3371070247100844E-4
156 66 1.478552988261544E-4
156 67 1.6331462079362345E-4
156 68 1.801900023241393E-4
156 69 1.9858834912484408E-4
156 70 2.186222153105597E-4
156 71 2.404098549935424E-4
156 72 2.64075245893548E-4
156 73 2.8974808198221224E-4
156 74 3.175637321289198E-4
156 75 3.4766316169206583E-4
156 76 3.801928140025063E-4
156 77 4.153044487175457E-4
156 78 4.531549340864822E-4
156 79 4.939059902648149E-4
156 80 5.377238809458774E-4
156 81 5.847790507477894E-4
156 82 6.352457060019391E-4
156 83 6.893013368380249E-4
156 84 7.471261787510978E-4
156 85 8.089026121686099E-4
156 86 8.748144989104668E-4
156 87 9.450464548521614E-4
156 88 1.0197830585595082E-3
156 89 1.0992079961619481E-3
156 90 1.183503143267951E-3
156 91 1.2728475852982531E-3
156 92 1.367416578217387E-3
156 93 1.4673804522774983E-3
156 94 1.5729034620464647E-3
156 95 1.6841425866698377E-3
156 96 1.8012462850076334E-3
156 97 1.9243532109863046E-3
156 98 2.0535908952067335E-3
156 99 2.1890743995435897E-3
156 100 2.330904952152349E-3
156 101 2.4791685709596527E-3
156 102 2.633934684342309E-3
156 103 2.795254758291549E-3
156 104 2.9631609399036283E-3
156 105 3.1376647275268414E-3
156 106 3.3187556783199905E-3
156 107 3.5064001643299895E-3
156 108 3.7005401884686075E-3
156 109 3.901092271952699E-3
156 110 4.107946424861764E-3
156 111 4.32096521145483E-3
156 112 4.53998292177005E-3
156 113 4.76480486080035E-3
156 114 4.995206766193312E-3
156 115 5.230934364960887E-3
156 116 5.471703079103E-3
156 117 5.717197889348822E-3
156 118 5.967073365401693E-3
156 119 6.220953870141162E-3
156 120 6.478433944192542E-3
156 121 6.739078876126403E-3
156 122 7.002425462304573E-3
156 123 7.267982959054018E-3
156 124 7.535234228435287E-3
156 125 7.803637077389106E-3
156 126 8.072625788505754E-3
156 127 8.341612839080366E-3
156 128 8.609990803507927E-3
156 129 8.87713443244969E-3
156 130 9.142402900584164E-3
156 131 9.405142213157209E-3
156 132 9.664687759983982E-3
156 133 9.920367004047512E-3
156 134 1.0171502290401539E-2
156 135 1.0417413759735424E-2
156 136 1.0657422349712599E-2
156 137 1.0890852866066733E-2
156 138 1.1117037104445721E-2
156 139 1.1335317003146307E-2
156 140 1.1545047806193727E-2
156 141 1.174560121570136E-2
156 142 1.1936368512104304E-2
156 143 1.211676362070477E-2
156 144 1.2286226103001317E-2
156 145 1.249567755366916E-2
156 146 1.2647725201243338E-2
156 147 1.278797291079477E-2
156 148 1.2916047924462049E-2
156 149 1.303162040483935E-2
156 150 1.3134405738393501E-2
156 151 1.322416662592239E-2
156 152 1.3300714943803983E-2
156 153 1.3363913361263248E-2
156 154 1.3413676700489765E-2
156 155 1.3449973028156653E-2
156 156 1.3472824468705454E-2
156 157 1.3482307731654639E-2
156 158 1.34785543471436E-2
156 159 1.3461750605920728E-2
156 160 1.3432137202005107E-2
156 161 1.3390008578277431E-2
156 162 1.333571197726858E-2
156 163 1.3269646201395842E-2
156 164 1.3192260088829398E-2
156 165 1.3104050713039059E-2
156 166 1.3005561315857584E-2
156 167 1.2897378985588088E-2
156 168 1.2780132093266132E-2
156 169 1.2654487501650647E-2
156 170 1.2521147562852095E-2
156 171 1.2380846921703298E-2
156 172 1.2234349143031752E-2
156 173 1.2082443181897405E-2
156 174 1.192593971661433E-2
156 175 1.17656673649772E-2
156 176 1.160246880456476E-2
156 177 1.1437196818294932E-2
156 178 1.1270710286563486E-2
156 179 1.1103870147315462E-2
156 180 1.0937535345282235E-2
156 181 1.0772558791374596E-2
156 182 1.0609783352861661E-2
156 183 1.0450037894496155E-2
156 184 1.0294133390177764E-2
156 185 1.0142859124088E-2
156 186 9.996978999492059E-3
156 187 9.85722797259584E-3
156 188 9.724308627978876E-3
156 189 9.598887911206368E-3
156 190 9.481594033264226E-3
156 191 9.373013560468713E-3
156 192 9.27368870248409E-3
156 193 9.18411481004479E-3
156 194 9.104738092928534E-3
156 195 9.035953567668812E-3
156 196 8.97810324343299E-3
156 197 8.931474553429495E-3
156 198 8.89629903814601E-3
156 199 8.872751285662114E-3
156 200 8.86094813322488E-3
157 58 5.746833410330014E-5
157 59 6.41150117582164E-5
157 60 7.145099732471724E-5
157 61 7.953793557242816E-5
157 62 8.844184310713185E-5
157 63 9.8233293538506E-5
157 64 1.0898759679241744E-4
157 65 1.2078497065307907E-4
157 66 1.3371070247100844E-4
157 67 1.478552988261544E-4
157 68 1.6331462079362345E-4
157 69 1.801900023241393E-4
157 70 1.9858834912484408E-4
157 71 2.186222153105597E-4
157 72 2.404098549935424E-4
157 73 2.64075245893548E-4
157 74 2.8974808198221224E-4
157 75 3.175637321289198E-4
157 76 3.4766316169206583E-4
157 77 3.801928140025063E-4
157 78 4.153044487175457E-4
157 79 4.531549340864822E-4
157 80 4.939059902648149E-4
157 81 5.377238809458774E-4
157 82 5.847790507477894E-4
157 83 6.352457060019391E-4
157 84 6.893013368380249E-4
157 85 7.471261787510978E-4
157 86 8.089026121686099E-4
157 87 8.748144989104668E-4
157 88 9.450464548521614E-4
157 89 1.0197830585595082E-3
157 90 1.0992079961619481E-3
157 91 1.183503143267951E-3
157 92 1.2728475852982531E-3
157 93 1.367416578217387E-3
157 94 1.4673804522774983E-3
157 95 1.5729034620464647E-3
157 96 1.6841425866698377E-3
157 97 1.8012462850076334E-3
157 98 1.9243532109863046E-3
157 99 2.0535908952067335E-3
157 100 2.1890743995435897E-3
157 101 2.330904952152349E-3
157 102 2.4791685709596527E-3
157 103 2.633934684342309E-3
157 104 2.795254758291549E-3
157 105 2.9631609399036283E-3
157 106 3.1376647275268414E-3
157 107 3.3187556783199905E-3
157 108 3.5064001643299895E-3
157 109 3.7005401884686075E-3
157 110 3.901092271952699E-3
157 111 4.107946424861764E-3
157 112 4.32096521145483E-3
157 113 4.53998292177005E-3
157 114 4.76480486080035E-3
157 115 4.995206766193312E-3
157 116 5.230934364960887E-3
157 117 5.471703079103E-3
157 118 5.717197889348822E-3
157 119 5.967073365401693E-3
157 120 6.220953870141162E-3
157 121 6.478433944192542E-3
157 122 6.739078876126403E-3
157 123 7.002425462304573E-3
157 124 7.267982959054018E-3
157 125 7.535234228435287E-3
157 126 7.803637077389106E-3
157 127 8.072625788505754E-3
157 128 8.341612839080366E-3
157 129 8.609990803507927E-3
157 130 8.87713443244969E-3
157 131 9.142402900584164E-3
157 132 9.405142213157209E-3
157 133 9.664687759983982E-3
157 134 9.920367004047512E-3
157 135 1.0171502290401539E-2
157 136 1.0417413759735424E-2
157 137 1.0657422349712599E-2
157 138 1.0890852866066733E-2
157 139 1.1117037104445721E-2
157 140 1.1335317003146307E-2
157 141 1.1545047806193727E-2
157 142 1.174560121570136E-2
157 143 1.1936368512104304E-2
157 144 1.2168217122872324E-2
157 145 1.2343694437104617E-2
157 146 1.2508339063259821E-2
157 147 1.2661707864464754E-2
157 148 1.2803395834608981E-2
157 149 1.2933038770244465E-2
157 150 1.3050315762805428E-2
157 151 1.3154951492078786E-2
157 152 1.3246718303036963E-2
157 153 1.3325438049482575E-2
157 154 1.3390983689436323E-2
157 155 1.3443280618812378E-2
157 156 1.3482307731654639E-2
157 157 1.3508098197036675E-2
157 158 1.3520739944641058E-2
157 159 1.3520375853012297E-2
157 160 1.3507203636503717E-2
157 161 1.3481475428993778E-2
157 162 1.3443497064512804E-2
157 163 1.3393627056978434E-2
157 164 1.3332275283269428E-2
157 165 1.3259901375854878E-2
157 166 1.3177012833123036E-2
157 167 1.3084162857404854E-2
157 168 1.2981947932447483E-2
157 169 1.2871005153749107E-2
157 170 1.2752009326706708E-2
157 171 1.2625669848942329E-2
157 172 1.2492727394452457E-2
157 173 1.2353950418362337E-2
157 174 1.2210131502056774E-2
157 175 1.2062083559297882E-2
157 176 1.1910635924626241E-2
157 177 1.1756630345874547E-2
157 178 1.1600916903003375E-2
157 179 1.1444349875699792E-2
157 180 1.1287783582264899E-2
157 181 1.1132068212261481E-2
157 182 1.0978045675203673E-2
157 183 1.0826545487254001E-2
157 184 1.0678380717457324E-2
157 185 1.0534344014494232E-2
157 186 1.0395203734287099E-2
157 187 1.0261700188049344E-2
157 188 1.0134542029541456E-2
157 189 1.001440279939494E-2
157 190 9.901917643396327E-3
157 191 9.79768022059612E-3
157 192 9.702239816030031E-3
157 193 9.616098671719383E-3
157 194 9.539709548461152E-3
157 195 9.473473529731682E-3
157 196 9.41773807781743E-3
157 197 9.372795351055698E-3
157 198 9.33888078982265E-3
157 199 9.316171977648141E-3
157 200 9.3047877825704E-3
158 59 5.746833410330014E-5
158 60 6.41150117582164E-5
158 61 7.145099732471724E-5
158 62 7.953793557242816E-5
158 63 8.844184310713185E-5
158 64 9.8233293538506E-5
158 65 1.0898759679241744E-4
158 66 1.2078497065307907E-4
158 67 1.3371070247100844E-4
158 68 1.478552988261544E-4
158 69 1.6331462079362345E-4
158 70 1.801900023241393E-4
158 71 1.9858834912484408E-4
158 72 2.186222153105597E-4
158 73 2.404098549935424E-4
158 74 2.64075245893548E-4
158 75 2.8974808198221224E-4
158 76 3.175637321289198E-4
158 77 3.4766316169206583E-4
158 78 3.801928140025063E-4
158 79 4.153044487175457E-4
158 80 4.531549340864822E-4
158 81 4.939059902648149E-4
158 82 5.377238809458774E-4
158 83 5.847790507477894E-4
158 84 6.352457060019391E-4
158 85 6.893013368380249E-4
158 86 7.471261787510978E-4
158 87 8.089026121686099E-4
158 88 8.748144989104668E-4
158 89 9.450464548521614E-4
158 90 1.0197830585595082E-3
158 91 1.0992079961619481E-3
158 92 1.183503143267951E-3
158 93 1.2728475852982531E-3
158 94 1.367416578217387E-3
158 95 1.4673804522774983E-3
158 96 1.5729034620464647E-3
158 97 1.6841425866698377E-3
158 98 1.8012462850076334E-3
158 99 1.9243532109863046E-3
158 100 2.0535908952067335E-3
158 101 2.1890743995435897E-3
158 102 2.330904952152349E-3
158 103 2.4791685709596527E-3
158 104 2.633934684342309E-3
158 105 2.795254758291549E-3
158 106 2.9631609399036283E-3
158 107 3.1376647275268414E-3
158 108 3.3187556783199905E-3
158 109 3.5064001643299895E-3
158 110 3.7005401884686075E-3
158 111 3.901092271952699E-3
158 112 4.107946424861764E-3
158 113 4.32096521145483E-3
158 114 4.53998292177005E-3
158 115 4.76480486080035E-3
158 116 4.995206766193312E-3
158 117 5.230934364960887E-3
158 118 5.471703079103E-3
158 119 5.717197889348822E-3
158 120 5.967073365401693E-3
158 121 6.220953870141162E-3
158 122 6.478433944192542E-3
158 123 6.739078876126403E-3
158 124 7.002425462304573E-3
158 125 7.267982959054018E-3
158 126 7.535234228435287E-3
158 127 7.803637077389106E-3
158 128 8.072625788505754E-3
158 129 8.341612839080366E-3
158 130 8.609990803507927E-3
158 131 8.87713443244969E-3
158 132 9.142402900584164E-3
158 133 9.405142213157209E-3
158 134 9.664687759983982E-3
158 135 9.920367004047512E-3
158 136 1.0171502290401539E-2
158 137 1.0417413759735424E-2
158 138 1.0657422349712599E-2
158 139 1.0890852866066733E-2
158 140 1.1117037104445721E-2
158 141 1.1335317003146307E-2
158 142 1.1545047806193727E-2
158 143 1.1797054717868913E-2
158 144 1.1993836846207605E-2
158 145 1.2180878632462986E-2
158 146 1.2357677100326033E-2
158 147 1.2523761987074033E-2
158 148 1.267869871024717E-2
158 149 1.2822091192575059E-2
158 150 1.295358452392975E-2
158 151 1.3072867439920002E-2
158 152 1.3179674597757377E-2
158 153 1.3273788631210037E-2
158 154 1.3355041967805188E-2
158 155 1.3423318392934308E-2
158 156 1.34785543471436E-2
158 157 1.3520739944641058E-2
158 158 1.3549919702905372E-2
158 159 1.3566192975224047E-2
158 160 1.3569714080000968E-2
158 161 1.3560692122739089E-2
158 162 1.3539390508703631E-2
158 163 1.350612614638639E-2
158 164 1.3461268344003914E-2
158 165 1.3405237403353405E-2
158 166 1.3338502917402148E-2
158 167 1.326158177998243E-2
158 168 1.3175035917887828E-2
158 169 1.3079469757503544E-2
158 170 1.2975527439839341E-2
158 171 1.2863889799455868E-2
158 172 1.2745271124272914E-2
158 173 1.2620415714611826E-2
158 174 1.2490094261045888E-2
158 175 1.2355100061705815E-2
158 176 1.2216245100607669E-2
158 177 1.2074356009334684E-2
158 178 1.1930269935010852E-2
158 179 1.1784830337952811E-2
158 180 1.1638882742679036E-2
158 181 1.1493270466093976E-2
158 182 1.134883034665382E-2
158 183 1.1206388498164842E-2
158 184 1.1066756111570469E-2
158 185 1.0930725327656425E-2
158 186 1.0799065203051517E-2
158 187 1.0672517791232714E-2
158 188 1.0551794359465407E-2
158 189 1.0437571761731415E-2
158 190 1.0330488986726836E-2
158 191 1.0231143898957646E-2
158 192 1.0140090189831414E-2
158 193 1.0057834554446393E-2
158 194 9.984834108522533E-3
158 195 9.92149405860977E-3
158 196 9.868165637354393E-3
158 197 9.825144314210586E-3
158 198 9.792668290557829E-3
158 199 9.770917286730936E-3
158 200 9.760011626993663E-3
159 60 5.746833410330014E-5
159 61 6.41150117582164E-5
159 62 7.145099732471724E-5
159 63 7.953793557242816E-5
159 64 8.844184310713185E-5
159 65 9.8233293538506E-5
159 66 1.0898759679241744E-4
159 67 1.2078497065307907E-4
159 68 1.3371070247100844E-4
159 69 1.478552988261544E-4
159 70 1.6331462079362345E-4
159 71 1.801900023241393E-4
159 72 1.9858834912484408E-4
159 73 2.186222153105597E-4
159 74 2.404098549935424E-4
159 75 2.64075245893548E-4
159 76 2.8974808198221224E-4
159 77 3.175637321289198E-4
159 78 3.4766316169206583E-4
159 79 3.801928140025063E-4
159 80 4.153044487175457E-4
159 81 4.531549340864822E-4
159 82 4.939059902648149E-4
159 83 5.377238809458774E-4
159 84 5.847790507477894E-4
159 85 6.352457060019391E-4
159 86 6.893013368380249E-4
159 87 7.471261787510978E-4
159 88 8.089026121686099E-4
159 89 8.748144989104668E-4
159 90 9.450464548521614E-4
159 91 1.0197830585595082E-3
159 92 1.0992079961619481E-3
159 93 1.183503143267951E-3
159 94 1.2728475852982531E-3
159 95 1.367416578217387E-3
159 96 1.4673804522774983E-3
159 97 1.5729034620464647E-3
159 98 1.6841425866698377E-3
159 99 1.8012462850076334E-3
159 100 1.9243532109863046E-3
159 101 2.0535908952067335E-3
159 102 2.1890743995435897E-3
159 103 2.330904952152349E-3
159 104 2.4791685709596527E-3
159 105 2.633934684342309E-3
159 106 2.795254758291549E-3
159 107 2.9631609399036283E-3
159 108 3.1376647275268414E-3
159 109 3.3187556783199905E-3
159 110 3.5064001643299895E-3
159 111 3.7005401884686075E-3
159 112 3.901092271952699E-3
159 113 4.107946424861764E-3
159 114 4.32096521145483E-3
159 115 4.53998292177005E-3
159 116 4.76480486080035E-3
159 117 4.995206766193312E-3
159 118 5.230934364960887E-3
159 119 5.471703079103E-3
159 120 5.717197889348822E-3
159 121 5.967073365401693E-3
159 122 6.220953870141162E-3
159 123 6.478433944192542E-3
159 124 6.739078876126403E-3
159 125 7.002425462304573E-3
159 126 7.267982959054018E-3
159 127 7.535234228435287E-3
159 128 7.803637077389106E-3
159 129 8.072625788505754E-3
159 130 8.341612839080366E-3
159 131 8.609990803507927E-3
159 132 8.87713443244969E-3
159 133 9.142402900584164E-3
159 134 9.405142213157209E-3
159 135 9.664687759983982E-3
159 136 9.920367004047512E-3
159 137 1.0171502290401539E-2
159 138 1.0417413759735424E-2
159 139 1.0657422349712599E-2
159 140 1.0890852866066733E-2
159 141 1.1117037104445721E-2
159 142 1.1386770505313861E-2
159 143 1.1602516140297028E-2
159 144 1.1809716227459575E-2
159 145 1.2007819509429021E-2
159 146 1.2196301556277198E-2
159 147 1.237466794610845E-2
159 148 1.2542457345040111E-2
159 149 1.2699244463932455E-2
159 150 1.2844642869689633E-2
159 151 1.297830762960834E-2
159 152 1.3099937768093076E-2
159 153 1.3209278516079993E-2
159 154 1.3306123334708023E-2
159 155 1.339031569613641E-2
159 156 1.3461750605920728E-2
159 157 1.3520375853012297E-2
159 158 1.3566192975224047E-2
159 159 1.3599257929894042E-2
159 160 1.3619681461459419E-2
159 161 1.3627629159710821E-2
159 162 1.3623321204612675E-2
159 163 1.3607031795729111E-2
159 164 1.3579088266470366E-2
159 165 1.3539869885551184E-2
159 166 1.34898063502128E-2
159 167 1.3429375977885122E-2
159 168 1.3359103605038492E-2
159 169 1.3279558203978062E-2
159 170 1.3191350230252703E-2
159 171 1.3095128715169926E-2
159 172 1.2991578119615236E-2
159 173 1.2881414966956465E-2
159 174 1.2765384274260867E-2
159 175 1.2644255802355675E-2
159 176 1.2518820146414257E-2
159 177 1.2389884689743974E-2
159 178 1.225826944428412E-2
159 179 1.2124802801990096E-2
159 180 1.1990317221781888E-2
159 181 1.1855644877071376E-2
159 182 1.1721613289055145E-2
159 183 1.1589040970970287E-2
159 184 1.1458733108363942E-2
159 185 1.1331477300127754E-2
159 186 1.120803938460204E-2
159 187 1.108915937446758E-2
159 188 1.0975547523422675E-2
159 189 1.0867880546797302E-2
159 190 1.0766798017292734E-2
159 191 1.0672898955962129E-2
159 192 1.0586738637374008E-2
159 193 1.0508825626634563E-2
159 194 1.043961906459501E-2
159 195 1.037952621614524E-2
159 196 1.0328900295002927E-2
159 197 1.0288038576856524E-2
159 198 1.0257180811118871E-2
159 199 1.023650793990335E-2
159 200 1.02261411311542E-2
160 61 5.746833410330014E-5
160 62 6.41150117582164E-5
160 63 7.145099732471724E-5
160 64 7.953793557242816E-5
160 65 8.844184310713185E-5
160 66 9.8233293538506E-5
160 67 1.0898759679241744E-4
160 68 1.2078497065307907E-4
160 69 1.3371070247100844E-4
160 70 1.478552988261544E-4
160 71 1.6331462079362345E-4
160 72 1.801900023241393E-4
160 73 1.9858834912484408E-4
160 74 2.186222153105597E-4
160 75 2.404098549935424E-4
160 76 2.64075245893548E-4
160 77 2.8974808198221224E-4
160 78 3.175637321289198E-4
160 79 3.4766316169206583E-4
160 80 3.801928140025063E-4
160 81 4.153044487175457E-4
160 82 4.531549340864822E-4
160 83 4.939059902648149E-4
160 84 5.377238809458774E-4
160 85 5.847790507477894E-4
160 86 6.352457060019391E-4
160 87 6.893013368380249E-4
160 88 7.471261787510978E-4
160 89 8.089026121686099E-4
160 90 8.748144989104668E-4
160 91 9.450464548521614E-4
160 92 1.0197830585595082E-3
160 93 1.0992079961619481E-3
160 94 1.183503143267951E-3
160 95 1.2728475852982531E-3
160 96 1.367416578217387E-3
160 97 1.4673804522774983E-3
160 98 1.5729034620464647E-3
160 99 1.6841425866698377E-3
160 100 1.8012462850076334E-3
160 101 1.9243532109863046E-3
160 102 2.0535908952067335E-3
160 103 2.1890743995435897E-3
160 104 2.330904952152349E-3
160 105 2.4791685709596527E-3
160 106 2.633934684342309E-3
160 107 2.795254758291549E-3
160 108 2.9631609399036283E-3
160 109 3.1376647275268414E-3
160 110 3.3187556783199905E-3
160 111 3.5064001643299895E-3
160 112 3.7005401884686075E-3
160 113 3.901092271952699E-3
160 114 4.107946424861764E-3
160 115 4.32096521145483E-3
160 116 4.53998292177005E-3
160 117 4.76480486080035E-3
160 118 4.995206766193312E-3
160 119 5.230934364960887E-3
160 120 5.471703079103E-3
160 121 5.717197889348822E-3
160 122 5.967073365401693E-3
160 123 6.220953870141162E-3
160 124 6.478433944192542E-3
160 125 6.739078876126403E-3
160 126 7.002425462304573E-3
160 127 7.267982959054018E-3
160 128 7.535234228435287E-3
160 129 7.803637077389106E-3
160 130 8.072625788505754E-3
160 131 8.341612839080366E-3
160 132 8.609990803507927E-3
160 133 8.87713443244969E-3
160 134 9.142402900584164E-3
160 135 9.405142213157209E-3
160 136 9.664687759983982E-3
160 137 9.920367004047512E-3
160 138 1.0171502290401539E-2
160 139 1.0417413759735424E-2
160 140 1.0657422349712599E-2
160 141 1.0942306368234287E-2
160 142 1.1174505438549021E-2
160 143 1.1399432014904523E-2
160 144 1.1616498803518444E-2
160 145 1.1825139151273787E-2
160 146 1.2024810355211437E-2
160 147 1.2214996914243275E-2
160 148 1.2395213699793734E-2
160 149 1.2565009022154685E-2
160 150 1.2723967569611047E-2
160 151 1.2871713197862707E-2
160 152 1.3007911547930955E-2
160 153 1.3132272471591062E-2
160 154 1.3244552244411213E-2
160 155 1.3344555547694443E-2
160 156 1.3432137202005107E-2
160 157 1.3507203636503717E-2
160 158 1.3569714080000968E-2
160 159 1.3619681461459419E-2
160 160 1.3657173009603896E-2
160 161 1.3682310543333005E-2
160 162 1.3695270446736301E-2
160 163 1.3696283324696652E-2
160 164 1.3685633337276381E-2
160 165 1.3663657213329761E-2
160 166 1.3630742946034159E-2
160 167 1.3587328175268861E-2
160 168 1.3533898263975356E-2
160 169 1.3470984077787651E-2
160 170 1.3399159479308647E-2
160 171 1.3319038550412072E-2
160 172 1.3231272557853477E-2
160 173 1.3136546679264277E-2
160 174 1.3035576508266252E-2
160 175 1.292910435896931E-2
160 176 1.281789539149198E-2
160 177 1.2702733581363694E-2
160 178 1.258441755672322E-2
160 179 1.2463756328113198E-2
160 180 1.2341564936382436E-2
160 181 1.2218660044743057E-2
160 182 1.2095855501387844E-2
160 183 1.1973957899254244E-2
160 184 1.1853762159527572E-2
160 185 1.1736047165309557E-2
160 186 1.1621571471543817E-2
160 187 1.1511069116792E-2
160 188 1.1405245561799476E-2
160 189 1.1304773778983994E-2
160 190 1.1210290516032595E-2
160 191 1.1122392755709096E-2
160 192 1.1041634392765277E-2
160 193 1.0968523147522625E-2
160 194 1.0903517734257271E-2
160 195 1.0847025300988168E-2
160 196 1.0799399155647371E-2
160 197 1.0760936791911212E-2
160 198 1.0731878226202043E-2
160 199 1.0712404655542134E-2
160 200 1.0702637444063887E-2
161 62 5.746833410330014E-5
161 63 6.41150117582164E-5
161 64 7.145099732471724E-5
161 65 7.953793557242816E-5
161 66 8.844184310713185E-5
161 67 9.8233293538506E-5
161 68 1.0898759679241744E-4
161 69 1.2078497065307907E-4
161 70 1.3371070247100844E-4
161 71 1.478552988261544E-4
161 72 1.6331462079362345E-4
161 73 1.801900023241393E-4
161 74 1.9858834912484408E-4
161 75 2.186222153105597E-4
161 76 2.404098549935424E-4
161 77 2.64075245893548E-4
161 78 2.8974808198221224E-4
161 79 3.175637321289198E-4
161 80 3.4766316169206583E-4
161 81 3.801928140025063E-4
161 82 4.153044487175457E-4
161 83 4.531549340864822E-4
161 84 4.939059902648149E-4
161 85 5.377238809458774E-4
161 86 5.847790507477894E-4
161 87 6.352457060019391E-4
161 88 6.893013368380249E-4
161 89 7.471261787510978E-4
161 90 8.089026121686099E-4
161 91 8.748144989104668E-4
161 92 9.450464548521614E-4
161 93 1.0197830585595082E-3
161 94 1.0992079961619481E-3
161 95 1.183503143267951E-3
161 96 1.2728475852982531E-3
161 97 1.367416578217387E-3
161 98 1.4673804522774983E-3
161 99 1.5729034620464647E-3
161 100 1.6841425866698377E-3
161 101 1.8012462850076334E-3
161 102 1.9243532109863046E-3
161 103 2.0535908952067335E-3
161 104 2.1890743995435897E-3
161 105 2.330904952152349E-3
161 106 2.4791685709596527E-3
161 107 2.633934684342309E-3
161 108 2.795254758291549E-3
161 109 2.9631609399036283E-3
161 110 3.1376647275268414E-3
161 111 3.3187556783199905E-3
161 112 3.5064001643299895E-3
161 113 3.7005401884686075E-3
161 114 3.901092271952699E-3
161 115 4.107946424861764E-3
161 116 4.32096521145483E-3
161 117 4.53998292177005E-3
161 118 4.76480486080035E-3
161 119 4.995206766193312E-3
161 120 5.230934364960887E-3
161 121 5.471703079103E-3
161 122 5.717197889348822E-3
161 123 5.967073365401693E-3
161 124 6.220953870141162E-3
161 125 6.478433944192542E-3
161 126 6.739078876126403E-3
161 127 7.002425462304573E-3
161 128 7.267982959054018E-3
161 129 7.535234228435287E-3
161 130 7.803637077389106E-3
161 131 8.072625788505754E-3
161 132 8.341612839080366E-3
161 133 8.609990803507927E-3
161 134 8.87713443244969E-3
161 135 9.142402900584164E-3
161 136 9.405142213157209E-3
161 137 9.664687759983982E-3
161 138 9.920367004047512E-3
161 139 1.0171502290401539E-2
161 140 1.0468867261902978E-2
161 141 1.07148906838159E-2
161 142 1.095496787782495E-2
161 143 1.1188488101770437E-2
161 144 1.1414854938718735E-2
161 145 1.163348964930086E-2
161 146 1.1843834509239865E-2
161 147 1.2045356108896722E-2
161 148 1.2237548591357849E-2
161 149 1.2419936805472325E-2
161 150 1.2592079350327759E-2
161 151 1.275357148793366E-2
161 152 1.2904047901360693E-2
161 153 1.3043185276262177E-2
161 154 1.3170704684577482E-2
161 155 1.328637375027991E-2
161 156 1.3390008578277431E-2
161 157 1.3481475428993778E-2
161 158 1.3560692122739089E-2
161 159 1.3627629159710821E-2
161 160 1.3682310543333005E-2
161 161 1.3724814296629376E-2
161 162 1.3755272663416982E-2
161 163 1.3773871988283571E-2
161 164 1.3780852271556046E-2
161 165 1.3776506397759356E-2
161 166 1.3761179038385822E-2
161 167 1.3735265232124393E-2
161 168 1.369920864801802E-2
161 169 1.3653499539305941E-2
161 170 1.359867239794702E-2
161 171 1.3535303321992199E-2
161 172 1.3464007110061113E-2
161 173 1.3385434099163264E-2
161 174 1.330026676397272E-2
161 175 1.3209216097402558E-2
161 176 1.3113017793918746E-2
161 177 1.3012428258471227E-2
161 178 1.2908220465192771E-2
161 179 1.2801179691115558E-2
161 180 1.2692099151074367E-2
161 181 1.2581775560698904E-2
161 182 1.2471004654942157E-2
161 183 1.2360576689945129E-2
161 184 1.225127195619986E-2
161 185 1.2143856330943635E-2
161 186 1.2039076897499518E-2
161 187 1.1937657658875712E-2
161 188 1.1840295372353319E-2
161 189 1.1747655531034767E-2
161 190 1.1660368517400356E-2
161 191 1.1579025952835744E-2
161 192 1.1504177265857713E-2
161 193 1.1436326500387986E-2
161 194 1.1375929383915781E-2
161 195 1.1323390673759402E-2
161 196 1.1279061797896454E-2
161 197 1.1243238804992893E-2
161 198 1.1216160636334474E-2
161 199 1.1198007730362579E-2
161 200 1.1188900968451822E-2
162 63 5.746833410330014E-5
162 64 6.41150117582164E-5
162 65 7.145099732471724E-5
162 66 7.953793557242816E-5
162 67 8.844184310713185E-5
162 68 9.8233293538506E-5
162 69 1.0898759679241744E-4
162 70 1.2078497065307907E-4
162 71 1.3371070247100844E-4
162 72 1.478552988261544E-4
162 73 1.6331462079362345E-4
162 74 1.801900023241393E-4
162 75 1.9858834912484408E-4
162 76 2.186222153105597E-4
162 77 2.404098549935424E-4
162 78 2.64075245893548E-4
162 79 2.8974808198221224E-4
162 80 3.175637321289198E-4
162 81 3.4766316169206583E-4
162 82 3.801928140025063E-4
162 83 4.153044487175457E-4
162 84 4.531549340864822E-4
162 85 4.939059902648149E-4
162 86 5.377238809458774E-4
162 87 5.847790507477894E-4
162 88 6.352457060019391E-4
162 89 6.893013368380249E-4
162 90 7.471261787510978E-4
162 91 8.089026121686099E-4
162 92 8.748144989104668E-4
162 93 9.450464548521614E-4
162 94 1.0197830585595082E-3
162 95 1.0992079961619481E-3
162 96 1.183503143267951E-3
162 97 1.2728475852982531E-3
162 98 1.367416578217387E-3
162 99 1.4673804522774983E-3
162 100 1.5729034620464647E-3
162 101 1.6841425866698377E-3
162 102 1.8012462850076334E-3
162 103 1.9243532109863046E-3
162 104 2.0535908952067335E-3
162 105 2.1890743995435897E-3
162 106 2.330904952152349E-3
162 107 2.4791685709596527E-3
162 108 2.633934684342309E-3
162 109 2.795254758291549E-3
162 110 2.9631609399036283E-3
162 111 3.1376647275268414E-3
162 112 3.3187556783199905E-3
162 113 3.5064001643299895E-3
162 114 3.7005401884686075E-3
162 115 3.901092271952699E-3
162 116 4.107946424861764E-3
162 117 4.32096521145483E-3
162 118 4.53998292177005E-3
162 119 4.76480486080035E-3
162 120 4.995206766193312E-3
162 121 5.230934364960887E-3
162 122 5.471703079103E-3
162 123 5.717197889348822E-3
162 124 5.967073365401693E-3
162 125 6.220953870141162E-3
162 126 6.478433944192542E-3
162 127 6.739078876126403E-3
162 128 7.002425462304573E-3
162 129 7.267982959054018E-3
162 130 7.535234228435287E-3
162 131 7.803637077389106E-3
162 132 8.072625788505754E-3
162 133 8.341612839080366E-3
162 134 8.609990803507927E-3
162 135 8.87713443244969E-3
162 136 9.142402900584164E-3
162 137 9.405142213157209E-3
162 138 9.664687759983982E-3
162 139 9.971820506215066E-3
162 140 1.0228970624504839E-2
162 141 1.048152877149364E-2
162 142 1.0728873347037315E-2
162 143 1.0970390801639161E-2
162 144 1.1205478947552854E-2
162 145 1.1433550296684813E-2
162 146 1.1654035402986145E-2
162 147 1.1866386186354438E-2
162 148 1.2070079214575313E-2
162 149 1.2264618919530923E-2
162 150 1.244954072379494E-2
162 151 1.2624414053825745E-2
162 152 1.2788845216264883E-2
162 153 1.2942480114347113E-2
162 154 1.3085006782130874E-2
162 155 1.321615771516047E-2
162 156 1.333571197726858E-2
162 157 1.3443497064512804E-2
162 158 1.3539390508703631E-2
162 159 1.3623321204612675E-2
162 160 1.3695270446736301E-2
162 161 1.3755272663416982E-2
162 162 1.3803415838176646E-2
162 163 1.3839841610276377E-2
162 164 1.3864745048766546E-2
162 165 1.3878374096612108E-2
162 166 1.388102868384959E-2
162 167 1.3873059511134982E-2
162 168 1.3854866507454978E-2
162 169 1.3826896968177389E-2
162 170 1.3789643381989493E-2
162 171 1.3743640957596061E-2
162 172 1.3689464863301986E-2
162 173 1.3627727194769556E-2
162 174 1.355907368829957E-2
162 175 1.3484180198922157E-2
162 176 1.3403748964381804E-2
162 177 1.3318504677747823E-2
162 178 1.3229190392863565E-2
162 179 1.313656328815394E-2
162 180 1.3041390315432026E-2
162 181 1.2944443761273468E-2
162 182 1.2846496749256189E-2
162 183 1.2748318711887772E-2
162 184 1.2650670861361192E-2
162 185 1.2554301688389821E-2
162 186 1.2459942518275532E-2
162 187 1.2368303153060837E-2
162 188 1.2280067628111005E-2
162 189 1.219589011076968E-2
162 190 1.2116390967837915E-2
162 191 1.2042153027548973E-2
162 192 1.1973718060458452E-2
162 193 1.191158350225087E-2
162 194 1.1856199439890117E-2
162 195 1.1807965880824067E-2
162 196 1.1767230323104923E-2
162 197 1.1734285642319715E-2
162 198 1.170936830915343E-2
162 199 1.1692656949244162E-2
162 200 1.1684271254750515E-2
163 64 5.746833410330014E-5
163 65 6.41150117582164E-5
163 66 7.145099732471724E-5
163 67 7.953793557242816E-5
163 68 8.844184310713185E-5
163 69 9.8233293538506E-5
163 70 1.0898759679241744E-4
163 71 1.2078497065307907E-4
163 72 1.3371070247100844E-4
163 73 1.478552988261544E-4
163 74 1.6331462079362345E-4
163 75 1.801900023241393E-4
163 76 1.9858834912484408E-4
163 77 2.186222153105597E-4
163 78 2.404098549935424E-4
163 79 2.64075245893548E-4
163 80 2.8974808198221224E-4
163 81 3.175637321289198E-4
163 82 3.4766316169206583E-4
163 83 3.801928140025063E-4
163 84 4.153044487175457E-4
163 85 4.531549340864822E-4
163 86 4.939059902648149E-4
163 87 5.377238809458774E-4
163 88 5.847790507477894E-4
163 89 6.352457060019391E-4
163 90 6.893013368380249E-4
163 91 7.471261787510978E-4
163 92 8.089026121686099E-4
163 93 8.748144989104668E-4
163 94 9.450464548521614E-4
163 95 1.0197830585595082E-3
163 96 1.0992079961619481E-3
163 97 1.183503143267951E-3
163 98 1.2728475852982531E-3
163 99 1.367416578217387E-3
163 100 1.4673804522774983E-3
163 101 1.5729034620464647E-3
163 102 1.6841425866698377E-3
163 103 1.8012462850076334E-3
163 104 1.9243532109863046E-3
163 105 2.0535908952067335E-3
163 106 2.1890743995435897E-3
163 107 2.330904952152349E-3
163 108 2.4791685709596527E-3
163 109 2.633934684342309E-3
163 110 2.795254758291549E-3
163 111 2.9631609399036283E-3
163 112 3.1376647275268414E-3
163 113 3.3187556783199905E-3
163 114 3.5064001643299895E-3
163 115 3.7005401884686075E-3
163 116 3.901092271952699E-3
163 117 4.107946424861764E-3
163 118 4.32096521145483E-3
163 119 4.53998292177005E-3
163 120 4.76480486080035E-3
163 121 4.995206766193312E-3
163 122 5.230934364960887E-3
163 123 5.471703079103E-3
163 124 5.717197889348822E-3
163 125 5.967073365401693E-3
163 126 6.220953870141162E-3
163 127 6.478433944192542E-3
163 128 6.739078876126403E-3
163 129 7.002425462304573E-3
163 130 7.267982959054018E-3
163 131 7.535234228435287E-3
163 132 7.803637077389106E-3
163 133 8.072625788505754E-3
163 134 8.341612839080366E-3
163 135 8.609990803507927E-3
163 136 8.87713443244969E-3
163 137 9.142402900584164E-3
163 138 9.456595715324763E-3
163 139 9.722156094087282E-3
163 140 9.984482015805728E-3
163 141 1.0242953287726255E-2
163 142 1.0496951695307852E-2
163 143 1.0745864192819731E-2
163 144 1.0989086159605239E-2
163 145 1.1226024701238138E-2
163 146 1.1456101973799386E-2
163 147 1.1678758508664736E-2
163 148 1.1893456514527513E-2
163 149 1.2099683132897929E-2
163 150 1.2296953623028909E-2
163 151 1.2484814452126161E-2
163 152 1.2662846266812165E-2
163 153 1.283066672213358E-2
163 154 1.2987933144930101E-2
163 155 1.3134345009119544E-2
163 156 1.3269646201395842E-2
163 157 1.3393627056978434E-2
163 158 1.350612614638639E-2
163 159 1.3607031795729111E-2
163 160 1.3696283324696652E-2
163 161 1.3773871988283571E-2
163 162 1.3839841610276377E-2
163 163 1.389428889865962E-2
163 164 1.3937363435332438E-2
163 165 1.396926733485678E-2
163 166 1.3990254569361267E-2
163 167 1.4000629959180175E-2
163 168 1.400074783129435E-2
163 169 1.399101035013853E-2
163 170 1.397186552782643E-2
163 171 1.394380492329928E-2
163 172 1.3907361042304504E-2
163 173 1.3863104452438291E-2
163 174 1.3811640629718992E-2
163 175 1.3753606555278814E-2
163 176 1.3689667082751234E-2
163 177 1.3620511098774142E-2
163 178 1.3546847500708992E-2
163 179 1.3469401017180032E-2
163 180 1.338890789835304E-2
163 181 1.3306111503989311E-2
163 182 1.3221757818219083E-2
163 183 1.3136590920672252E-2
163 184 1.3051348444077734E-2
163 185 1.2966757048693087E-2
163 186 1.288352794395114E-2
163 187 1.2802352487510823E-2
163 188 1.2723897891477199E-2
163 189 1.2648803064914154E-2
163 190 1.2577674620918298E-2
163 191 1.2511083075460627E-2
163 192 1.2449559263942131E-2
163 193 1.2393590999960583E-2
163 194 1.2343619999159155E-2
163 195 1.2300039089235638E-2
163 196 1.226318972524733E-2
163 197 1.223335982726546E-2
163 198 1.2210781955229403E-2
163 199 1.2195631833541365E-2
163 200 1.2188027235542855E-2
164 65 5.746833410330014E-5
164 66 6.41150117582164E-5
164 67 7.145099732471724E-5
164 68 7.953793557242816E-5
164 69 8.844184310713185E-5
164 70 9.8233293538506E-5
164 71 1.0898759679241744E-4
164 72 1.2078497065307907E-4
164 73 1.3371070247100844E-4
164 74 1.478552988261544E-4
164 75 1.6331462079362345E-4
164 76 1.801900023241393E-4
164 77 1.9858834912484408E-4
164 78 2.186222153105597E-4
164 79 2.404098549935424E-4
164 80 2.64075245893548E-4
164 81 2.8974808198221224E-4
164 82 3.175637321289198E-4
164 83 3.4766316169206583E-4
164 84 3.801928140025063E-4
164 85 4.153044487175457E-4
164 86 4.531549340864822E-4
164 87 4.939059902648149E-4
164 88 5.377238809458774E-4
164 89 5.847790507477894E-4
164 90 6.352457060019391E-4
164 91 6.893013368380249E-4
164 92 7.471261787510978E-4
164 93 8.089026121686099E-4
164 94 8.748144989104668E-4
164 95 9.450464548521614E-4
164 96 1.0197830585595082E-3
164 97 1.0992079961619481E-3
164 98 1.183503143267951E-3
164 99 1.2728475852982531E-3
164 100 1.367416578217387E-3
164 101 1.4673804522774983E-3
164 102 1.5729034620464647E-3
164 103 1.6841425866698377E-3
164 104 1.8012462850076334E-3
164 105 1.9243532109863046E-3
164 106 2.0535908952067335E-3
164 107 2.1890743995435897E-3
164 108 2.330904952152349E-3
164 109 2.4791685709596527E-3
164 110 2.633934684342309E-3
164 111 2.795254758291549E-3
164 112 2.9631609399036283E-3
164 113 3.1376647275268414E-3
164 114 3.3187556783199905E-3
164 115 3.5064001643299895E-3
164 116 3.7005401884686075E-3
164 117 3.901092271952699E-3
164 118 4.107946424861764E-3
164 119 4.32096521145483E-3
164 120 4.53998292177005E-3
164 121 4.76480486080035E-3
164 122 4.995206766193312E-3
164 123 5.230934364960887E-3
164 124 5.471703079103E-3
164 125 5.717197889348822E-3
164 126 5.967073365401693E-3
164 127 6.220953870141162E-3
164 128 6.478433944192542E-3
164 129 6.739078876126403E-3
164 130 7.002425462304573E-3
164 131 7.267982959054018E-3
164 132 7.535234228435287E-3
164 133 7.803637077389106E-3
164 134 8.072625788505754E-3
164 135 8.341612839080366E-3
164 136 8.609990803507927E-3
164 137 8.928587934617245E-3
164 138 9.199871234687464E-3
164 139 9.469257224915425E-3
164 140 9.736138757308698E-3
164 141 9.99990493961994E-3
164 142 1.0259944133508671E-2
164 143 1.051564705327393E-2
164 144 1.0766409946505016E-2
164 145 1.1011637836719813E-2
164 146 1.125074780691673E-2
164 147 1.148317230197246E-2
164 148 1.1708362426987352E-2
164 149 1.1925791218025499E-2
164 150 1.213495686122915E-2
164 151 1.2335385836015329E-2
164 152 1.2526635957994858E-2
164 153 1.2708299297395153E-2
164 154 1.288000494912225E-2
164 155 1.3041421631165473E-2
164 156 1.3192260088829398E-2
164 157 1.3332275283269428E-2
164 158 1.3461268344003914E-2
164 159 1.3579088266470366E-2
164 160 1.3685633337276381E-2
164 161 1.3780852271556046E-2
164 162 1.3864745048766546E-2
164 163 1.3937363435332438E-2
164 164 1.3998811184749854E-2
164 165 1.4049243908081597E-2
164 166 1.4088868610187365E-2
164 167 1.4117942889520636E-2
164 168 1.4136773801863727E-2
164 169 1.4145716390943391E-2
164 170 1.4145171891448316E-2
164 171 1.4135585612534873E-2
164 172 1.4117444512435585E-2
164 173 1.409127447725394E-2
164 174 1.4057637319417535E-2
164 175 1.401712751354807E-2
164 176 1.3970368689671154E-2
164 177 1.3918009905712403E-2
164 178 1.386072172309061E-2
164 179 1.3799192110908094E-2
164 180 1.3734122205737317E-2
164 181 1.3666221955298655E-2
164 182 1.3596205675405374E-2
164 183 1.3524787550409043E-2
164 184 1.3452677108004147E-2
164 185 1.3380574699639053E-2
164 186 1.330916701792838E-2
164 187 1.3239122682367502E-2
164 188 1.317108792431397E-2
164 189 1.3105682401625816E-2
164 190 1.3043495172536862E-2
164 191 1.2985080857311454E-2
164 192 1.2930956014962757E-2
164 193 1.2881595760850417E-2
164 194 1.2837430649306104E-2
164 195 1.2798843843582418E-2
164 196 1.2766168593396174E-2
164 197 1.2739686038157018E-2
164 198 1.2719623351653395E-2
164 199 1.2706152241528096E-2
164 200 1.2699387814333704E-2
165 66 5.746833410330014E-5
165 67 6.41150117582164E-5
165 68 7.145099732471724E-5
165 69 7.953793557242816E-5
165 70 8.844184310713185E-5
165 71 9.8233293538506E-5
165 72 1.0898759679241744E-4
165 73 1.2078497065307907E-4
165 74 1.3371070247100844E-4
165 75 1.478552988261544E-4
165 76 1.6331462079362345E-4
165 77 1.801900023241393E-4
165 78 1.9858834912484408E-4
165 79 2.186222153105597E-4
165 80 2.404098549935424E-4
165 81 2.64075245893548E-4
165 82 2.8974808198221224E-4
165 83 3.175637321289198E-4
165 84 3.4766316169206583E-4
165 85 3.801928140025063E-4
165 86 4.153044487175457E-4
165 87 4.531549340864822E-4
165 88 4.939059902648149E-4
165 89 5.377238809458774E-4
165 90 5.847790507477894E-4
165 91 6.352457060019391E-4
165 92 6.893013368380249E-4
165 93 7.471261787510978E-4
165 94 8.089026121686099E-4
165 95 8.748144989104668E-4
165 96 9.450464548521614E-4
165 97 1.0197830585595082E-3
165 98 1.0992079961619481E-3
165 99 1.183503143267951E-3
165 100 1.2728475852982531E-3
165 101 1.367416578217387E-3
165 102 1.4673804522774983E-3
165 103 1.5729034620464647E-3
165 104 1.6841425866698377E-3
165 105 1.8012462850076334E-3
165 106 1.9243532109863046E-3
165 107 2.0535908952067335E-3
165 108 2.1890743995435897E-3
165 109 2.330904952152349E-3
165 110 2.4791685709596527E-3
165 111 2.633934684342309E-3
165 112 2.795254758291549E-3
165 113 2.9631609399036283E-3
165 114 3.1376647275268414E-3
165 115 3.3187556783199905E-3
165 116 3.5064001643299895E-3
165 117 3.7005401884686075E-3
165 118 3.901092271952699E-3
165 119 4.107946424861764E-3
165 120 4.32096521145483E-3
165 121 4.53998292177005E-3
165 122 4.76480486080035E-3
165 123 4.995206766193312E-3
165 124 5.230934364960887E-3
165 125 5.471703079103E-3
165 126 5.717197889348822E-3
165 127 5.967073365401693E-3
165 128 6.220953870141162E-3
165 129 6.478433944192542E-3
165 130 6.739078876126403E-3
165 131 7.002425462304573E-3
165 132 7.267982959054018E-3
165 133 7.535234228435287E-3
165 134 7.803637077389106E-3
165 135 8.072625788505754E-3
165 136 8.39306634124792E-3
165 137 8.667459137611227E-3
165 138 8.941249444207907E-3
165 139 9.21385389790888E-3
165 140 9.484680148729637E-3
165 141 9.753129603091115E-3
165 142 1.0018600297586017E-2
165 143 1.0280489887193956E-2
165 144 1.0538198730388504E-2
165 145 1.0791133052183608E-2
165 146 1.1038708164892887E-2
165 147 1.1280351725239345E-2
165 148 1.1515507005470446E-2
165 149 1.1743636155318572E-2
165 150 1.1964223431011918E-2
165 151 1.2176778367097846E-2
165 152 1.2380838866598317E-2
165 153 1.2575974184983529E-2
165 154 1.2761787783630525E-2
165 155 1.2937920028832104E-2
165 156 1.3104050713039059E-2
165 157 1.3259901375854878E-2
165 158 1.3405237403353405E-2
165 159 1.3539869885551184E-2
165 160 1.3663657213329761E-2
165 161 1.3776506397759356E-2
165 162 1.3878374096612108E-2
165 163 1.396926733485678E-2
165 164 1.4049243908081597E-2
165 165 1.411841246008044E-2
165 166 1.4176932228240966E-2
165 167 1.4225012452870917E-2
165 168 1.4262911449169677E-2
165 169 1.4290935343173513E-2
165 170 1.4309436475651834E-2
165 171 1.4318811480584621E-2
165 172 1.431949904748431E-2
165 173 1.431197737941483E-2
165 174 1.4296761361083017E-2
165 175 1.4274399453809875E-2
165 176 1.4245470336509239E-2
165 177 1.4210579313987622E-2
165 178 1.4170354515911504E-2
165 179 1.4125442911647895E-2
165 180 1.407650616785371E-2
165 181 1.402421637715338E-2
165 182 1.3969251687488617E-2
165 183 1.391229186273727E-2
165 184 1.3854013805970362E-2
165 185 1.379508707723944E-2
165 186 1.3736169438055414E-2
165 187 1.3677902454731529E-2
165 188 1.362090719251612E-2
165 189 1.3565780031936682E-2
165 190 1.3513088638018974E-2
165 191 1.3463368112038993E-2
165 192 1.341711735421974E-2
165 193 1.3374795664308277E-2
165 194 1.3336819605273678E-2
165 195 1.3303560153466641E-2
165 196 1.3275340156492106E-2
165 197 1.325243211778411E-2
165 198 1.323505632445571E-2
165 199 1.3223379332445735E-2
165 200 1.3217512820318945E-2
166 67 5.746833410330014E-5
166 68 6.41150117582164E-5
166 69 7.145099732471724E-5
166 70 7.953793557242816E-5
166 71 8.844184310713185E-5
166 72 9.8233293538506E-5
166 73 1.0898759679241744E-4
166 74 1.2078497065307907E-4
166 75 1.3371070247100844E-4
166 76 1.478552988261544E-4
166 77 1.6331462079362345E-4
166 78 1.801900023241393E-4
166 79 1.9858834912484408E-4
166 80 2.186222153105597E-4
166 81 2.404098549935424E-4
166 82 2.64075245893548E-4
166 83 2.8974808198221224E-4
166 84 3.175637321289198E-4
166 85 3.4766316169206583E-4
166 86 3.801928140025063E-4
166 87 4.153044487175457E-4
166 88 4.531549340864822E-4
166 89 4.939059902648149E-4
166 90 5.377238809458774E-4
166 91 5.847790507477894E-4
166 92 6.352457060019391E-4
166 93 6.893013368380249E-4
166 94 7.471261787510978E-4
166 95 8.089026121686099E-4
166 96 8.748144989104668E-4
166 97 9.450464548521614E-4
166 98 1.0197830585595082E-3
166 99 1.0992079961619481E-3
166 100 1.183503143267951E-3
166 101 1.2728475852982531E-3
166 102 1.367416578217387E-3
166 103 1.4673804522774983E-3
166 104 1.5729034620464647E-3
166 105 1.6841425866698377E-3
166 106 1.8012462850076334E-3
166 107 1.9243532109863046E-3
166 108 2.0535908952067335E-3
166 109 2.1890743995435897E-3
166 110 2.330904952152349E-3
166 111 2.4791685709596527E-3
166 112 2.633934684342309E-3
166 113 2.795254758291549E-3
166 114 2.9631609399036283E-3
166 115 3.1376647275268414E-3
166 116 3.3187556783199905E-3
166 117 3.5064001643299895E-3
166 118 3.7005401884686075E-3
166 119 3.901092271952699E-3
166 120 4.107946424861764E-3
166 121 4.32096521145483E-3
166 122 4.53998292177005E-3
166 123 4.76480486080035E-3
166 124 4.995206766193312E-3
166 125 5.230934364960887E-3
166 126 5.471703079103E-3
166 127 5.717197889348822E-3
166 128 5.967073365401693E-3
166 129 6.220953870141162E-3
166 130 6.478433944192542E-3
166 131 6.739078876126403E-3
166 132 7.002425462304573E-3
166 133 7.267982959054018E-3
166 134 7.535234228435287E-3
166 135 7.85509057955666E-3
166 136 8.130094122609054E-3
166 137 8.405727850838582E-3
166 138 8.681441800832643E-3
166 139 8.956672368022119E-3
166 140 9.230844743691296E-3
166 141 9.503375506695715E-3
166 142 9.773675356776399E-3
166 143 1.0041151974700591E-2
166 144 1.0305212992872547E-2
166 145 1.0565269058561578E-2
166 146 1.0820736970506221E-2
166 147 1.1071042868390873E-2
166 148 1.1315625453570566E-2
166 149 1.1553939218456866E-2
166 150 1.1785457661187269E-2
166 151 1.2009676461594907E-2
166 152 1.2226116594086517E-2
166 153 1.243432735283369E-2
166 154 1.2633889264693382E-2
166 155 1.2824416865504111E-2
166 156 1.3005561315857584E-2
166 157 1.3177012833123036E-2
166 158 1.3338502917402148E-2
166 159 1.34898063502128E-2
166 160 1.3630742946034159E-2
166 161 1.3761179038385822E-2
166 162 1.388102868384959E-2
166 163 1.3990254569361267E-2
166 164 1.4088868610187365E-2
166 165 1.4176932228240966E-2
166 166 1.425455630276399E-2
166 167 1.4321900787890007E-2
166 168 1.4379173994180703E-2
166 169 1.442663153387812E-2
166 170 1.4464574932309819E-2
166 171 1.449334991060127E-2
166 172 1.4513344347563868E-2
166 173 1.4524985931313386E-2
166 174 1.452873951380717E-2
166 175 1.4525104184044187E-2
166 176 1.4514610078126343E-2
166 177 1.4497814946708338E-2
166 178 1.4475300502544907E-2
166 179 1.444766857285712E-2
166 180 1.4415537083063958E-2
166 181 1.4379535900043669E-2
166 182 1.4340302564485277E-2
166 183 1.4298477943049935E-2
166 184 1.4254701831972562E-2
166 185 1.4209608544386724E-2
166 186 1.416382251404259E-2
166 187 1.4117953948204032E-2
166 188 1.4072594562354237E-2
166 189 1.4028313428909277E-2
166 190 1.3985652971438813E-2
166 191 1.394512513492726E-2
166 192 1.3907207761384514E-2
166 193 1.3872341198643003E-2
166 194 1.3840925168468812E-2
166 195 1.3813315918183366E-2
166 196 1.3789823677854576E-2
166 197 1.3770710442790799E-2
166 198 1.3756188098576448E-2
166 199 1.374641690324656E-2
166 200 1.3741504338430976E-2
167 68 5.746833410330014E-5
167 69 6.41150117582164E-5
167 70 7.145099732471724E-5
167 71 7.953793557242816E-5
167 72 8.844184310713185E-5
167 73 9.8233293538506E-5
167 74 1.0898759679241744E-4
167 75 1.2078497065307907E-4
167 76 1.3371070247100844E-4
167 77 1.478552988261544E-4
167 78 1.6331462079362345E-4
167 79 1.801900023241393E-4
167 80 1.9858834912484408E-4
167 81 2.186222153105597E-4
167 82 2.404098549935424E-4
167 83 2.64075245893548E-4
167 84 2.8974808198221224E-4
167 85 3.175637321289198E-4
167 86 3.4766316169206583E-4
167 87 3.801928140025063E-4
167 88 4.153044487175457E-4
167 89 4.531549340864822E-4
167 90 4.939059902648149E-4
167 91 5.377238809458774E-4
167 92 5.847790507477894E-4
167 93 6.352457060019391E-4
167 94 6.893013368380249E-4
167 95 7.471261787510978E-4
167 96 8.089026121686099E-4
167 97 8.748144989104668E-4
167 98 9.450464548521614E-4
167 99 1.0197830585595082E-3
167 100 1.0992079961619481E-3
167 101 1.183503143267951E-3
167 102 1.2728475852982531E-3
167 103 1.367416578217387E-3
167 104 1.4673804522774983E-3
167 105 1.5729034620464647E-3
167 106 1.6841425866698377E-3
167 107 1.8012462850076334E-3
167 108 1.9243532109863046E-3
167 109 2.0535908952067335E-3
167 110 2.1890743995435897E-3
167 111 2.330904952152349E-3
167 112 2.4791685709596527E-3
167 113 2.633934684342309E-3
167 114 2.795254758291549E-3
167 115 2.9631609399036283E-3
167 116 3.1376647275268414E-3
167 117 3.3187556783199905E-3
167 118 3.5064001643299895E-3
167 119 3.7005401884686075E-3
167 120 3.901092271952699E-3
167 121 4.107946424861764E-3
167 122 4.32096521145483E-3
167 123 4.53998292177005E-3
167 124 4.76480486080035E-3
167 125 4.995206766193312E-3
167 126 5.230934364960887E-3
167 127 5.471703079103E-3
167 128 5.717197889348822E-3
167 129 5.967073365401693E-3
167 130 6.220953870141162E-3
167 131 6.478433944192542E-3
167 132 6.739078876126403E-3
167 133 7.002425462304573E-3
167 134 7.319436461221572E-3
167 135 7.5927025625385875E-3
167 136 7.867752089147322E-3
167 137 8.14407678583047E-3
167 138 8.421150774652794E-3
167 139 8.698432646615059E-3
167 140 8.975367725988196E-3
167 141 9.25139049737658E-3
167 142 9.525927183810288E-3
167 143 9.79839846245499E-3
167 144 1.0068222302873665E-2
167 145 1.0334816911195161E-2
167 146 1.0597603762059564E-2
167 147 1.0856010698837444E-2
167 148 1.1109475081377293E-2
167 149 1.1357446959439263E-2
167 150 1.1599392249039855E-2
167 151 1.183479588817594E-2
167 152 1.2063164947830279E-2
167 153 1.228403167379637E-2
167 154 1.2496956434707275E-2
167 155 1.2701530551718862E-2
167 156 1.2897378985588088E-2
167 157 1.3084162857404854E-2
167 158 1.326158177998243E-2
167 159 1.3429375977885122E-2
167 160 1.3587328175268861E-2
167 161 1.3735265232124393E-2
167 162 1.3873059511134982E-2
167 163 1.4000629959180175E-2
167 164 1.4117942889520636E-2
167 165 1.4225012452870917E-2
167 166 1.4321900787890007E-2
167 167 1.4408717844073778E-2
167 168 1.448562087259845E-2
167 169 1.4552813583317009E-2
167 170 1.4610544968827556E-2
167 171 1.4659107799289063E-2
167 172 1.4698836794430348E-2
167 173 1.4730106481956206E-2
167 174 1.4753328754274556E-2
167 175 1.4768950138123637E-2
167 176 1.4777448794243288E-2
167 177 1.4779331266683628E-2
167 178 1.4775129003653954E-2
167 179 1.476539467396097E-2
167 180 1.475069830504708E-2
167 181 1.4731623270395854E-2
167 182 1.4708762155604987E-2
167 183 1.4682712533720568E-2
167 184 1.4654072681466297E-2
167 185 1.462343726877571E-2
167 186 1.4591393054535341E-2
167 187 1.4558514621665297E-2
167 188 1.452536018459719E-2
167 189 1.4492467501856367E-2
167 190 1.4460349925817562E-2
167 191 1.4429492620784332E-2
167 192 1.4400348979350521E-2
167 193 1.4373337265545051E-2
167 194 1.434883751155269E-2
167 195 1.4327188692856749E-2
167 196 1.4308686204482059E-2
167 197 1.4293579658646915E-2
167 198 1.4282071021581648E-2
167 199 1.427431310456169E-2
167 200 1.427040842135859E-2
168 69 5.746833410330014E-5
168 70 6.41150117582164E-5
168 71 7.145099732471724E-5
168 72 7.953793557242816E-5
168 73 8.844184310713185E-5
168 74 9.8233293538506E-5
168 75 1.0898759679241744E-4
168 76 1.2078497065307907E-4
168 77 1.3371070247100844E-4
168 78 1.478552988261544E-4
168 79 1.6331462079362345E-4
168 80 1.801900023241393E-4
168 81 1.9858834912484408E-4
168 82 2.186222153105597E-4
168 83 2.404098549935424E-4
168 84 2.64075245893548E-4
168 85 2.8974808198221224E-4
168 86 3.175637321289198E-4
168 87 3.4766316169206583E-4
168 88 3.801928140025063E-4
168 89 4.153044487175457E-4
168 90 4.531549340864822E-4
168 91 4.939059902648149E-4
168 92 5.377238809458774E-4
168 93 5.847790507477894E-4
168 94 6.352457060019391E-4
168 95 6.893013368380249E-4
168 96 7.471261787510978E-4
168 97 8.089026121686099E-4
168 98 8.748144989104668E-4
168 99 9.450464548521614E-4
168 100 1.0197830585595082E-3
168 101 1.0992079961619481E-3
168 102 1.183503143267951E-3
168 103 1.2728475852982531E-3
168 104 1.367416578217387E-3
168 105 1.4673804522774983E-3
168 106 1.5729034620464647E-3
168 107 1.6841425866698377E-3
168 108 1.8012462850076334E-3
168 109 1.9243532109863046E-3
168 110 2.0535908952067335E-3
168 111 2.1890743995435897E-3
168 112 2.330904952152349E-3
168 113 2.4791685709596527E-3
168 114 2.633934684342309E-3
168 115 2.795254758291549E-3
168 116 2.9631609399036283E-3
168 117 3.1376647275268414E-3
168 118 3.3187556783199905E-3
168 119 3.5064001643299895E-3
168 120 3.7005401884686075E-3
168 121 3.901092271952699E-3
168 122 4.107946424861764E-3
168 123 4.32096521145483E-3
168 124 4.53998292177005E-3
168 125 4.76480486080035E-3
168 126 4.995206766193312E-3
168 127 5.230934364960887E-3
168 128 5.471703079103E-3
168 129 5.717197889348822E-3
168 130 5.967073365401693E-3
168 131 6.220953870141162E-3
168 132 6.478433944192542E-3
168 133 6.790532378293957E-3
168 134 7.059893796407873E-3
168 135 7.3320979708122345E-3
168 136 7.606685225760005E-3
168 137 7.883175012961534E-3
168 138 8.161067631612886E-3
168 139 8.439846132618872E-3
168 140 8.718978400300344E-3
168 141 8.99791940310277E-3
168 142 9.276113603055173E-3
168 143 9.552997511983363E-3
168 144 9.828002380777606E-3
168 145 1.0100557006371651E-2
168 146 1.0370090639526383E-2
168 147 1.0636035975045983E-2
168 148 1.089783220470614E-2
168 149 1.1154928111960281E-2
168 150 1.1406785186427933E-2
168 151 1.1652880735275227E-2
168 152 1.1892710967885793E-2
168 153 1.2125794029703865E-2
168 154 1.235167296082185E-2
168 155 1.2569918554791252E-2
168 156 1.2780132093266132E-2
168 157 1.2981947932447483E-2
168 158 1.3175035917887828E-2
168 159 1.3359103605038492E-2
168 160 1.3533898263975356E-2
168 161 1.369920864801802E-2
168 162 1.3854866507454978E-2
168 163 1.400074783129435E-2
168 164 1.4136773801863727E-2
168 165 1.4262911449169677E-2
168 166 1.4379173994180703E-2
168 167 1.448562087259845E-2
168 168 1.4582357433210083E-2
168 169 1.4669534307547886E-2
168 170 1.4747346450296253E-2
168 171 1.4816031852656633E-2
168 172 1.4875869933681403E-2
168 173 1.4927179617391517E-2
168 174 1.4970317106272673E-2
168 175 1.5005673364473657E-2
168 176 1.5033671326680922E-2
168 177 1.5054762851188903E-2
168 178 1.5069425438099691E-2
168 179 1.5078158735843915E-2
168 180 1.5081480861292865E-2
168 181 1.5079924560608398E-2
168 182 1.5074033239631145E-2
168 183 1.506435689402135E-2
168 184 1.5051447970523716E-2
168 185 1.5035857191614915E-2
168 186 1.5018129376398421E-2
168 187 1.4998799290928497E-2
168 188 1.4978387561167428E-2
168 189 1.4957396681505475E-2
168 190 1.4936307151201889E-2
168 191 1.4915573770240824E-2
168 192 1.4895622124944868E-2
168 193 1.4876845292260209E-2
168 194 1.4859600789932986E-2
168 195 1.4844207797851384E-2
168 196 1.4830944673649088E-2
168 197 1.4820046783272908E-2
168 198 1.4811704664632157E-2
168 199 1.4806062539693679E-2
168 200 1.4803217187489306E-2
169 70 5.746833410330014E-5
169 71 6.41150117582164E-5
169 72 7.145099732471724E-5
169 73 7.953793557242816E-5
169 74 8.844184310713185E-5
169 75 9.8233293538506E-5
169 76 1.0898759679241744E-4
169 77 1.2078497065307907E-4
169 78 1.3371070247100844E-4
169 79 1.478552988261544E-4
169 80 1.6331462079362345E-4
169 81 1.801900023241393E-4
169 82 1.9858834912484408E-4
169 83 2.186222153105597E-4
169 84 2.404098549935424E-4
169 85 2.64075245893548E-4
169 86 2.8974808198221224E-4
169 87 3.175637321289198E-4
169 88 3.4766316169206583E-4
169 89 3.801928140025063E-4
169 90 4.153044487175457E-4
169 91 4.531549340864822E-4
169 92 4.939059902648149E-4
169 93 5.377238809458774E-4
169 94 5.847790507477894E-4
169 95 6.352457060019391E-4
169 96 6.893013368380249E-4
169 97 7.471261787510978E-4
169 98 8.089026121686099E-4
169 99 8.748144989104668E-4
169 100 9.450464548521614E-4
169 101 1.0197830585595082E-3
169 102 1.0992079961619481E-3
169 103 1.183503143267951E-3
169 104 1.2728475852982531E-3
169 105 1.367416578217387E-3
169 106 1.4673804522774983E-3
169 107 1.5729034620464647E-3
169 108 1.6841425866698377E-3
169 109 1.8012462850076334E-3
169 110 1.9243532109863046E-3
169 111 2.0535908952067335E-3
169 112 2.1890743995435897E-3
169 113 2.330904952152349E-3
169 114 2.4791685709596527E-3
169 115 2.633934684342309E-3
169 116 2.795254758291549E-3
169 117 2.9631609399036283E-3
169 118 3.1376647275268414E-3
169 119 3.3187556783199905E-3
169 120 3.5064001643299895E-3
169 121 3.7005401884686075E-3
169 122 3.901092271952699E-3
169 123 4.107946424861764E-3
169 124 4.32096521145483E-3
169 125 4.53998292177005E-3
169 126 4.76480486080035E-3
169 127 4.995206766193312E-3
169 128 5.230934364960887E-3
169 129 5.471703079103E-3
169 130 5.717197889348822E-3
169 131 5.967073365401693E-3
169 132 6.272407372308716E-3
169 133 6.535902278295843E-3
169 134 6.80319388788462E-3
169 135 7.07387645962929E-3
169 136 7.347520894626446E-3
169 137 7.623676071542419E-3
169 138 7.901870370927612E-3
169 139 8.181613385298171E-3
169 140 8.462397809733445E-3
169 141 8.743701505978935E-3
169 142 9.024989731275844E-3
169 143 9.305717521377786E-3
169 144 9.585332215481348E-3
169 145 9.863276109108827E-3
169 146 1.0138989219358071E-2
169 147 1.041191214539508E-2
169 148 1.0681489005628972E-2
169 149 1.0947170431694811E-2
169 150 1.1208416598195653E-2
169 151 1.1464700266137787E-2
169 152 1.1715509817148813E-2
169 153 1.1960352254911273E-2
169 154 1.2198756149787842E-2
169 155 1.243027450236912E-2
169 156 1.2654487501650647E-2
169 157 1.2871005153749107E-2
169 158 1.3079469757503544E-2
169 159 1.3279558203978062E-2
169 160 1.3470984077787651E-2
169 161 1.3653499539305941E-2
169 162 1.3826896968177389E-2
169 163 1.399101035013853E-2
169 164 1.4145716390943391E-2
169 165 1.4290935343173513E-2
169 166 1.442663153387812E-2
169 167 1.4552813583317009E-2
169 168 1.4669534307547886E-2
169 169 1.4776890300189329E-2
169 170 1.4875021191376963E-2
169 171 1.4964108584688593E-2
169 172 1.5044374675617802E-2
169 173 1.511608055799787E-2
169 174 1.5179524227590616E-2
169 175 1.5235038294829958E-2
169 176 1.5282987421419272E-2
169 177 1.5323765498096985E-2
169 178 1.5357792583378863E-2
169 179 1.5385511625431586E-2
169 180 1.5407384991405234E-2
169 181 1.5423890830528158E-2
169 182 1.543551929902476E-2
169 183 1.5442768676434293E-2
169 184 1.5446141404169967E-2
169 185 1.5446140078146427E-2
169 186 1.5443263428008072E-2
169 187 1.5438002315900552E-2
169 188 1.5430835787836782E-2
169 189 1.542222721051295E-2
169 190 1.5412620525928736E-2
169 191 1.5402436655362426E-2
169 192 1.5392070083150512E-2
169 193 1.5381885649332804E-2
169 194 1.5372215578558902E-2
169 195 1.5363356770725325E-2
169 196 1.5355568376642233E-2
169 197 1.534906967963433E-2
169 198 1.5344038301384939E-2
169 199 1.5340608747559771E-2
169 200 1.5338871305824394E-2
170 71 5.746833410330014E-5
170 72 6.41150117582164E-5
170 73 7.145099732471724E-5
170 74 7.953793557242816E-5
170 75 8.844184310713185E-5
170 76 9.8233293538506E-5
170 77 1.0898759679241744E-4
170 78 1.2078497065307907E-4
170 79 1.3371070247100844E-4
170 80 1.478552988261544E-4
170 81 1.6331462079362345E-4
170 82 1.801900023241393E-4
170 83 1.9858834912484408E-4
170 84 2.186222153105597E-4
170 85 2.404098549935424E-4
170 86 2.64075245893548E-4
170 87 2.8974808198221224E-4
170 88 3.175637321289198E-4
170 89 3.4766316169206583E-4
170 90 3.801928140025063E-4
170 91 4.153044487175457E-4
170 92 4.531549340864822E-4
170 93 4.939059902648149E-4
170 94 5.377238809458774E-4
170 95 5.847790507477894E-4
170 96 6.352457060019391E-4
170 97 6.893013368380249E-4
170 98 7.471261787510978E-4
170 99 8.089026121686099E-4
170 100 8.748144989104668E-4
170 101 9.450464548521614E-4
170 102 1.0197830585595082E-3
170 103 1.0992079961619481E-3
170 104 1.183503143267951E-3
170 105 1.2728475852982531E-3
170 106 1.367416578217387E-3
170 107 1.4673804522774983E-3
170 108 1.5729034620464647E-3
170 109 1.6841425866698377E-3
170 110 1.8012462850076334E-3
170 111 1.9243532109863046E-3
170 112 2.0535908952067335E-3
170 113 2.1890743995435897E-3
170 114 2.330904952152349E-3
170 115 2.4791685709596527E-3
170 116 2.633934684342309E-3
170 117 2.795254758291549E-3
170 118 2.9631609399036283E-3
170 119 3.1376647275268414E-3
170 120 3.3187556783199905E-3
170 121 3.5064001643299895E-3
170 122 3.7005401884686075E-3
170 123 3.901092271952699E-3
170 124 4.107946424861764E-3
170 125 4.32096521145483E-3
170 126 4.53998292177005E-3
170 127 4.76480486080035E-3
170 128 4.995206766193312E-3
170 129 5.230934364960887E-3
170 130 5.471703079103E-3
170 131 5.768651391516376E-3
170 132 6.0245416995049934E-3
170 133 6.285068881899379E-3
170 134 6.54988494151726E-3
170 135 6.818616811698831E-3
170 136 7.0908673054117044E-3
170 137 7.366216252592523E-3
170 138 7.644221825227704E-3
170 139 7.924422048042185E-3
170 140 8.206336490976763E-3
170 141 8.48946813790652E-3
170 142 8.77330542430155E-3
170 143 9.05732443477383E-3
170 144 9.340991249709009E-3
170 145 9.623764428467768E-3
170 146 9.905097614977524E-3
170 147 1.018444224994106E-2
170 148 1.046125037238375E-2
170 149 1.0734977491864344E-2
170 150 1.1005085511404665E-2
170 151 1.127104568006924E-2
170 152 1.1532341553163267E-2
170 153 1.178847193723279E-2
170 154 1.2038953796458543E-2
170 155 1.2283325096647237E-2
170 156 1.2521147562852095E-2
170 157 1.2752009326706708E-2
170 158 1.2975527439839341E-2
170 159 1.3191350230252703E-2
170 160 1.3399159479308647E-2
170 161 1.359867239794702E-2
170 162 1.3789643381989493E-2
170 163 1.397186552782643E-2
170 164 1.4145171891448316E-2
170 165 1.4309436475651834E-2
170 166 1.4464574932309819E-2
170 167 1.4610544968827556E-2
170 168 1.4747346450296253E-2
170 169 1.4875021191376963E-2
170 170 1.4993652434581667E-2
170 171 1.5103364014338132E-2
170 172 1.520431920900506E-2
170 173 1.5296719285816902E-2
170 174 1.5380801746555156E-2
170 175 1.5456838284536232E-2
170 176 1.5525132466246021E-2
170 177 1.5586017153609232E-2
170 178 1.563985168542888E-2
170 179 1.568701883894018E-2
170 180 1.572792159466688E-2
170 181 1.5762979729821595E-2
170 182 1.5792626267331307E-2
170 183 1.581730380917338E-2
170 184 1.5837460784057004E-2
170 185 1.5853547640563122E-2
170 186 1.5866013017648558E-2
170 187 1.5875299924916358E-2
170 188 1.588184196524607E-2
170 189 1.5886059632260044E-2
170 190 1.5888356714673486E-2
170 191 1.5889116838838424E-2
170 192 1.588870017975036E-2
170 193 1.5887440369449203E-2
170 194 1.5885641630125145E-2
170 195 1.588357615734975E-2
170 196 1.5881481776710567E-2
170 197 1.5879559894754265E-2
170 198 1.5877973762561944E-2
170 199 1.5876847067515652E-2
170 200 1.5876262865894858E-2
171 72 5.746833410330014E-5
171 73 6.41150117582164E-5
171 74 7.145099732471724E-5
171 75 7.953793557242816E-5
171 76 8.844184310713185E-5
171 77 9.8233293538506E-5
171 78 1.0898759679241744E-4
171 79 1.2078497065307907E-4
171 80 1.3371070247100844E-4
171 81 1.478552988261544E-4
171 82 1.6331462079362345E-4
171 83 1.801900023241393E-4
171 84 1.9858834912484408E-4
171 85 2.186222153105597E-4
171 86 2.404098549935424E-4
171 87 2.64075245893548E-4
171 88 2.8974808198221224E-4
171 89 3.175637321289198E-4
171 90 3.4766316169206583E-4
171 91 3.801928140025063E-4
171 92 4.153044487175457E-4
171 93 4.531549340864822E-4
171 94 4.939059902648149E-4
171 95 5.377238809458774E-4
171 96 5.847790507477894E-4
171 97 6.352457060019391E-4
171 98 6.893013368380249E-4
171 99 7.471261787510978E-4
171 100 8.089026121686099E-4
171 101 8.748144989104668E-4
171 102 9.450464548521614E-4
171 103 1.0197830585595082E-3
171 104 1.0992079961619481E-3
171 105 1.183503143267951E-3
171 106 1.2728475852982531E-3
171 107 1.367416578217387E-3
171 108 1.4673804522774983E-3
171 109 1.5729034620464647E-3
171 110 1.6841425866698377E-3
171 111 1.8012462850076334E-3
171 112 1.9243532109863046E-3
171 113 2.0535908952067335E-3
171 114 2.1890743995435897E-3
171 115 2.330904952152349E-3
171 116 2.4791685709596527E-3
171 117 2.633934684342309E-3
171 118 2.795254758291549E-3
171 119 2.9631609399036283E-3
171 120 3.1376647275268414E-3
171 121 3.3187556783199905E-3
171 122 3.5064001643299895E-3
171 123 3.7005401884686075E-3
171 124 3.901092271952699E-3
171 125 4.107946424861764E-3
171 126 4.32096521145483E-3
171 127 4.53998292177005E-3
171 128 4.76480486080035E-3
171 129 4.995206766193312E-3
171 130 5.282387867128441E-3
171 131 5.5291714132063E-3
171 132 5.781312901107039E-3
171 133 6.0385243627264105E-3
171 134 6.30049180571359E-3
171 135 6.566875787299674E-3
171 136 6.837312169664909E-3
171 137 7.11141305909699E-3
171 138 7.388767929707097E-3
171 139 7.668944930906295E-3
171 140 7.95149237621526E-3
171 141 8.235940409299376E-3
171 142 8.521802841404505E-3
171 143 8.808579152632771E-3
171 144 9.09575664776025E-3
171 145 9.382812755577705E-3
171 146 9.669217459050757E-3
171 147 9.954435841966194E-3
171 148 1.0237930736176432E-2
171 149 1.0519165452093604E-2
171 150 1.079760657373793E-2
171 151 1.1072726798430145E-2
171 152 1.1344007800153216E-2
171 153 1.1610943094710537E-2
171 154 1.1873040884092185E-2
171 155 1.2129826856941518E-2
171 156 1.2380846921703298E-2
171 157 1.2625669848942329E-2
171 158 1.2863889799455868E-2
171 159 1.3095128715169926E-2
171 160 1.3319038550412072E-2
171 161 1.3535303321992199E-2
171 162 1.3743640957596061E-2
171 163 1.394380492329928E-2
171 164 1.4135585612534873E-2
171 165 1.4318811480584621E-2
171 166 1.449334991060127E-2
171 167 1.4659107799289063E-2
171 168 1.4816031852656633E-2
171 169 1.4964108584688593E-2
171 170 1.5103364014338132E-2
171 171 1.5233863058898135E-2
171 172 1.5355708624537234E-2
171 173 1.5469040397562346E-2
171 174 1.5574033342762517E-2
171 175 1.5670895917971217E-2
171 176 1.5759868016726193E-2
171 177 1.5841218653577918E-2
171 178 1.591524340917055E-2
171 179 1.5982261654664175E-2
171 180 1.6042613577356545E-2
171 181 1.609665703147003E-2
171 182 1.6144764239970213E-2
171 183 1.6187318374954015E-2
171 184 1.6224710045566533E-2
171 185 1.6257333723559135E-2
171 186 1.6285584137471408E-2
171 187 1.6309852666994078E-2
171 188 1.633052376933962E-2
171 189 1.6347971469406607E-2
171 190 1.6362555945169735E-2
171 191 1.6374620239061423E-2
171 192 1.638448712513712E-2
171 193 1.63924561605427E-2
171 194 1.6398800948240054E-2
171 195 1.6403766636110387E-2
171 196 1.640756767546178E-2
171 197 1.641038585963818E-2
171 198 1.641236866088498E-2
171 199 1.6413627880897032E-2
171 200 1.641423862758612E-2
172 73 5.746833410330014E-5
172 74 6.41150117582164E-5
172 75 7.145099732471724E-5
172 76 7.953793557242816E-5
172 77 8.844184310713185E-5
172 78 9.8233293538506E-5
172 79 1.0898759679241744E-4
172 80 1.2078497065307907E-4
172 81 1.3371070247100844E-4
172 82 1.478552988261544E-4
172 83 1.6331462079362345E-4
172 84 1.801900023241393E-4
172 85 1.9858834912484408E-4
172 86 2.186222153105597E-4
172 87 2.404098549935424E-4
172 88 2.64075245893548E-4
172 89 2.8974808198221224E-4
172 90 3.175637321289198E-4
172 91 3.4766316169206583E-4
172 92 3.801928140025063E-4
172 93 4.153044487175457E-4
172 94 4.531549340864822E-4
172 95 4.939059902648149E-4
172 96 5.377238809458774E-4
172 97 5.847790507477894E-4
172 98 6.352457060019391E-4
172 99 6.893013368380249E-4
172 100 7.471261787510978E-4
172 101 8.089026121686099E-4
172 102 8.748144989104668E-4
172 103 9.450464548521614E-4
172 104 1.0197830585595082E-3
172 105 1.0992079961619481E-3
172 106 1.183503143267951E-3
172 107 1.2728475852982531E-3
172 108 1.367416578217387E-3
172 109 1.4673804522774983E-3
172 110 1.5729034620464647E-3
172 111 1.6841425866698377E-3
172 112 1.8012462850076334E-3
172 113 1.9243532109863046E-3
172 114 2.0535908952067335E-3
172 115 2.1890743995435897E-3
172 116 2.330904952152349E-3
172 117 2.4791685709596527E-3
172 118 2.633934684342309E-3
172 119 2.795254758291549E-3
172 120 2.9631609399036283E-3
172 121 3.1376647275268414E-3
172 122 3.3187556783199905E-3
172 123 3.5064001643299895E-3
172 124 3.7005401884686075E-3
172 125 3.901092271952699E-3
172 126 4.107946424861764E-3
172 127 4.32096521145483E-3
172 128 4.53998292177005E-3
172 129 4.816258362967904E-3
172 130 5.0526751002966126E-3
172 131 5.295049376719103E-3
172 132 5.543154076427717E-3
172 133 5.79673582492125E-3
172 134 6.055515208508825E-3
172 135 6.3191871636796675E-3
172 136 6.5874215409849595E-3
172 137 6.859863846779482E-3
172 138 7.136136164775582E-3
172 139 7.415838257880172E-3
172 140 7.698548849228911E-3
172 141 7.983827079713245E-3
172 142 8.271214137630599E-3
172 143 8.560235054390925E-3
172 144 8.850400658501468E-3
172 145 9.141209678343238E-3
172 146 9.432150982566376E-3
172 147 9.722705945286129E-3
172 148 1.0012350921676048E-2
172 149 1.0300559818050017E-2
172 150 1.0586806739119084E-2
172 151 1.0870568693821907E-2
172 152 1.1151328339977415E-2
172 153 1.142857674701261E-2
172 154 1.1701816155193511E-2
172 155 1.1970562709148246E-2
172 156 1.2234349143031752E-2
172 157 1.2492727394452457E-2
172 158 1.2745271124272914E-2
172 159 1.2991578119615236E-2
172 160 1.3231272557853477E-2
172 161 1.3464007110061113E-2
172 162 1.3689464863301986E-2
172 163 1.3907361042304504E-2
172 164 1.4117444512435585E-2
172 165 1.431949904748431E-2
172 166 1.4513344347563868E-2
172 167 1.4698836794430348E-2
172 168 1.4875869933681403E-2
172 169 1.5044374675617802E-2
172 170 1.520431920900506E-2
172 171 1.5355708624537234E-2
172 172 1.549858424745542E-2
172 173 1.563302268148285E-2
172 174 1.5759134568978407E-2
172 175 1.587706307495248E-2
172 176 1.5986982105303114E-2
172 177 1.608909427228751E-2
172 178 1.618362862281321E-2
172 179 1.6270838147586914E-2
172 180 1.6350997091467322E-2
172 181 1.6424398087505163E-2
172 182 1.6491349139092736E-2
172 183 1.655217047636337E-2
172 184 1.6607191314456145E-2
172 185 1.665674654247482E-2
172 186 1.6701173372904655E-2
172 187 1.6740807981894673E-2
172 188 1.6775982171154613E-2
172 189 1.6807020082249307E-2
172 190 1.6834234993794543E-2
172 191 1.6857926231468427E-2
172 192 1.687837621985376E-2
172 193 1.6895847703927967E-2
172 194 1.691058116652794E-2
172 195 1.6922792466352084E-2
172 196 1.6932670719038E-2
172 197 1.6940376441592495E-2
172 198 1.6946039977973268E-2
172 199 1.6949760220955443E-2
172 200 1.695160364258829E-2
173 74 5.746833410330014E-5
173 75 6.41150117582164E-5
173 76 7.145099732471724E-5
173 77 7.953793557242816E-5
173 78 8.844184310713185E-5
173 79 9.8233293538506E-5
173 80 1.0898759679241744E-4
173 81 1.2078497065307907E-4
173 82 1.3371070247100844E-4
173 83 1.478552988261544E-4
173 84 1.6331462079362345E-4
173 85 1.801900023241393E-4
173 86 1.9858834912484408E-4
173 87 2.186222153105597E-4
173 88 2.404098549935424E-4
173 89 2.64075245893548E-4
173 90 2.8974808198221224E-4
173 91 3.175637321289198E-4
173 92 3.4766316169206583E-4
173 93 3.801928140025063E-4
173 94 4.153044487175457E-4
173 95 4.531549340864822E-4
173 96 4.939059902648149E-4
173 97 5.377238809458774E-4
173 98 5.847790507477894E-4
173 99 6.352457060019391E-4
173 100 6.893013368380249E-4
173 101 7.471261787510978E-4
173 102 8.089026121686099E-4
173 103 8.748144989104668E-4
173 104 9.450464548521614E-4
173 105 1.0197830585595082E-3
173 106 1.0992079961619481E-3
173 107 1.183503143267951E-3
173 108 1.2728475852982531E-3
173 109 1.367416578217387E-3
173 110 1.4673804522774983E-3
173 111 1.5729034620464647E-3
173 112 1.6841425866698377E-3
173 113 1.8012462850076334E-3
173 114 1.9243532109863046E-3
173 115 2.0535908952067335E-3
173 116 2.1890743995435897E-3
173 117 2.330904952152349E-3
173 118 2.4791685709596527E-3
173 119 2.633934684342309E-3
173 120 2.795254758291549E-3
173 121 2.9631609399036283E-3
173 122 3.1376647275268414E-3
173 123 3.3187556783199905E-3
173 124 3.5064001643299895E-3
173 125 3.7005401884686075E-3
173 126 3.901092271952699E-3
173 127 4.107946424861764E-3
173 128 4.372418713622384E-3
173 129 4.59745125587335E-3
173 130 4.828919872558567E-3
173 131 5.06665776351803E-3
173 132 5.3104723005333145E-3
173 133 5.5601449222101315E-3
173 134 5.815431182887328E-3
173 135 6.07606096219411E-3
173 136 6.341738840794241E-3
173 137 6.612144646663551E-3
173 138 6.886934174952558E-3
173 139 7.165740083098196E-3
173 140 7.448172961378157E-3
173 141 7.733822577560131E-3
173 142 8.022259292699665E-3
173 143 8.313035643499295E-3
173 144 8.605688084973914E-3
173 145 8.899738885490139E-3
173 146 9.19469816457861E-3
173 147 9.49006606227623E-3
173 148 9.785335027159715E-3
173 149 1.0079992208701528E-2
173 150 1.0373521938133994E-2
173 151 1.0665408280666354E-2
173 152 1.0955137640681302E-2
173 153 1.1242201400460389E-2
173 154 1.1526098572068672E-2
173 155 1.1806338441283745E-2
173 156 1.2082443181897405E-2
173 157 1.2353950418362337E-2
173 158 1.2620415714611826E-2
173 159 1.2881414966956465E-2
173 160 1.3136546679264277E-2
173 161 1.3385434099163264E-2
173 162 1.3627727194769556E-2
173 163 1.3863104452438291E-2
173 164 1.409127447725394E-2
173 165 1.431197737941483E-2
173 166 1.4524985931313386E-2
173 167 1.4730106481956206E-2
173 168 1.4927179617391517E-2
173 169 1.511608055799787E-2
173 170 1.5296719285816902E-2
173 171 1.5469040397562346E-2
173 172 1.563302268148285E-2
173 173 1.5788678418871483E-2
173 174 1.5936052413672807E-2
173 175 1.6075220756310304E-2
173 176 1.6206289330513796E-2
173 177 1.632939207453841E-2
173 178 1.6444689010703874E-2
173 179 1.6552364059616357E-2
173 180 1.665262265773553E-2
173 181 1.674568919909003E-2
173 182 1.6831804323898317E-2
173 183 1.6911222078594867E-2
173 184 1.6984206973271656E-2
173 185 1.7051030963801665E-2
173 186 1.711197038689808E-2
173 187 1.716730287706519E-2
173 188 1.7217304294804357E-2
173 189 1.726224569554255E-2
173 190 1.7302390368548E-2
173 191 1.733799097458688E-2
173 192 1.7369286810259274E-2
173 193 1.7396501225839002E-2
173 194 1.7419839222039997E-2
173 195 1.7439485249455558E-2
173 196 1.7455601232482798E-2
173 197 1.7468324837373088E-2
173 198 1.7477768001662963E-2
173 199 1.748401573966453E-2
173 200 1.7487125235957617E-2
174 75 5.746833410330014E-5
174 76 6.41150117582164E-5
174 77 7.145099732471724E-5
174 78 7.953793557242816E-5
174 79 8.844184310713185E-5
174 80 9.8233293538506E-5
174 81 1.0898759679241744E-4
174 82 1.2078497065307907E-4
174 83 1.3371070247100844E-4
174 84 1.478552988261544E-4
174 85 1.6331462079362345E-4
174 86 1.801900023241393E-4
174 87 1.9858834912484408E-4
174 88 2.186222153105597E-4
174 89 2.404098549935424E-4
174 90 2.64075245893548E-4
174 91 2.8974808198221224E-4
174 92 3.175637321289198E-4
174 93 3.4766316169206583E-4
174 94 3.801928140025063E-4
174 95 4.153044487175457E-4
174 96 4.531549340864822E-4
174 97 4.939059902648149E-4
174 98 5.377238809458774E-4
174 99 5.847790507477894E-4
174 100 6.352457060019391E-4
174 101 6.893013368380249E-4
174 102 7.471261787510978E-4
174 103 8.089026121686099E-4
174 104 8.748144989104668E-4
174 105 9.450464548521614E-4
174 106 1.0197830585595082E-3
174 107 1.0992079961619481E-3
174 108 1.183503143267951E-3
174 109 1.2728475852982531E-3
174 110 1.367416578217387E-3
174 111 1.4673804522774983E-3
174 112 1.5729034620464647E-3
174 113 1.6841425866698377E-3
174 114 1.8012462850076334E-3
174 115 1.9243532109863046E-3
174 116 2.0535908952067335E-3
174 117 2.1890743995435897E-3
174 118 2.330904952152349E-3
174 119 2.4791685709596527E-3
174 120 2.633934684342309E-3
174 121 2.795254758291549E-3
174 122 2.9631609399036283E-3
174 123 3.1376647275268414E-3
174 124 3.3187556783199905E-3
174 125 3.5064001643299895E-3
174 126 3.7005401884686075E-3
174 127 3.952545774120253E-3
174 128 4.1654147589650645E-3
174 129 4.3850802232130465E-3
174 130 4.611433919094767E-3
174 131 4.844342796372778E-3
174 132 5.083648609300444E-3
174 133 5.329167658499392E-3
174 134 5.580690675895417E-3
174 135 5.8379828600019015E-3
174 136 6.100784067872702E-3
174 137 6.368809168967316E-3
174 138 6.641748564986166E-3
174 139 6.9192688784505425E-3
174 140 7.201013811429417E-3
174 141 7.486605174364578E-3
174 142 7.77564408342883E-3
174 143 8.067712323282654E-3
174 144 8.362373870487966E-3
174 145 8.659176571209286E-3
174 146 8.957653965199992E-3
174 147 9.257327246452196E-3
174 148 9.55770734930171E-3
174 149 9.858297147243691E-3
174 150 1.0158593750248798E-2
174 151 1.0458090884993389E-2
174 152 1.0756281341149329E-2
174 153 1.1052659465737363E-2
174 154 1.1346723686550623E-2
174 155 1.1637979044817831E-2
174 156 1.192593971661433E-2
174 157 1.2210131502056774E-2
174 158 1.2490094261045888E-2
174 159 1.2765384274260867E-2
174 160 1.3035576508266252E-2
174 161 1.330026676397272E-2
174 162 1.355907368829957E-2
174 163 1.3811640629718992E-2
174 164 1.4057637319417535E-2
174 165 1.4296761361083017E-2
174 166 1.452873951380717E-2
174 167 1.4753328754274556E-2
174 168 1.4970317106272673E-2
174 169 1.5179524227590616E-2
174 170 1.5380801746555156E-2
174 171 1.5574033342762517E-2
174 172 1.5759134568978407E-2
174 173 1.5936052413672807E-2
174 174 1.610476460620338E-2
174 175 1.6265278669234128E-2
174 176 1.64176307255456E-2
174 177 1.656188406893016E-2
174 178 1.6698127511341556E-2
174 179 1.682647352085249E-2
174 180 1.694705616723907E-2
174 181 1.7060028894128686E-2
174 182 1.716556213859216E-2
174 183 1.7263840820806602E-2
174 184 1.7355061727940387E-2
174 185 1.7439430817694918E-2
174 186 1.7517160467962204E-2
174 187 1.758846669980777E-2
174 188 1.7653566401453127E-2
174 189 1.7712674581103052E-2
174 190 1.7766001676334887E-2
174 191 1.781375094733885E-2
174 192 1.7856115980572122E-2
174 193 1.7893278328371308E-2
174 194 1.7925405308766615E-2
174 195 1.795264798817071E-2
174 196 1.7975139367790646E-2
174 197 1.7992992792553265E-2
174 198 1.800630059906435E-2
174 199 1.8015133016665137E-2
174 200 1.8019537333033853E-2
175 76 5.746833410330014E-5
175 77 6.41150117582164E-5
175 78 7.145099732471724E-5
175 79 7.953793557242816E-5
175 80 8.844184310713185E-5
175 81 9.8233293538506E-5
175 82 1.0898759679241744E-4
175 83 1.2078497065307907E-4
175 84 1.3371070247100844E-4
175 85 1.478552988261544E-4
175 86 1.6331462079362345E-4
175 87 1.801900023241393E-4
175 88 1.9858834912484408E-4
175 89 2.186222153105597E-4
175 90 2.404098549935424E-4
175 91 2.64075245893548E-4
175 92 2.8974808198221224E-4
175 93 3.175637321289198E-4
175 94 3.4766316169206583E-4
175 95 3.801928140025063E-4
175 96 4.153044487175457E-4
175 97 4.531549340864822E-4
175 98 4.939059902648149E-4
175 99 5.377238809458774E-4
175 100 5.847790507477894E-4
175 101 6.352457060019391E-4
175 102 6.893013368380249E-4
175 103 7.471261787510978E-4
175 104 8.089026121686099E-4
175 105 8.748144989104668E-4
175 106 9.450464548521614E-4
175 107 1.0197830585595082E-3
175 108 1.0992079961619481E-3
175 109 1.183503143267951E-3
175 110 1.2728475852982531E-3
175 111 1.367416578217387E-3
175 112 1.4673804522774983E-3
175 113 1.5729034620464647E-3
175 114 1.6841425866698377E-3
175 115 1.8012462850076334E-3
175 116 1.9243532109863046E-3
175 117 2.0535908952067335E-3
175 118 2.1890743995435897E-3
175 119 2.330904952152349E-3
175 120 2.4791685709596527E-3
175 121 2.633934684342309E-3
175 122 2.795254758291549E-3
175 123 2.9631609399036283E-3
175 124 3.1376647275268414E-3
175 125 3.3187556783199905E-3
175 126 3.5578536664975435E-3
175 127 3.758008522571908E-3
175 128 3.965207283710916E-3
175 129 4.179397422186482E-3
175 130 4.400503147027258E-3
175 131 4.6284247648771815E-3
175 132 4.863038154338856E-3
175 133 5.104194362985729E-3
175 134 5.351719335613966E-3
175 135 5.605413781574009E-3
175 136 5.865053188174977E-3
175 137 6.1303879861953165E-3
175 138 6.401143872465301E-3
175 139 6.677022293317386E-3
175 140 6.957701091436963E-3
175 141 7.242835317298115E-3
175 142 7.532058204947565E-3
175 143 7.8249823104175E-3
175 144 8.121200809518026E-3
175 145 8.42028895019782E-3
175 146 8.721805653082872E-3
175 147 9.025295252225472E-3
175 148 9.330289366536173E-3
175 149 9.63630889084898E-3
175 150 9.942866094103086E-3
175 151 1.0249466810731772E-2
175 152 1.055561271004945E-2
175 153 1.0860803627239563E-2
175 154 1.1164539938486522E-2
175 155 1.1466324961881208E-2
175 156 1.17656673649772E-2
175 157 1.2062083559297882E-2
175 158 1.2355100061705815E-2
175 159 1.2644255802355675E-2
175 160 1.292910435896931E-2
175 161 1.3209216097402558E-2
175 162 1.3484180198922157E-2
175 163 1.3753606555278814E-2
175 164 1.401712751354807E-2
175 165 1.4274399453809875E-2
175 166 1.4525104184044187E-2
175 167 1.4768950138123637E-2
175 168 1.5005673364473657E-2
175 169 1.5235038294829958E-2
175 170 1.5456838284536232E-2
175 171 1.5670895917971217E-2
175 172 1.587706307495248E-2
175 173 1.6075220756310304E-2
175 174 1.6265278669234128E-2
175 175 1.644717457543867E-2
175 176 1.662087340765049E-2
175 177 1.6786366162348746E-2
175 178 1.6943668579078777E-2
175 179 1.7092819618964264E-2
175 180 1.723387975724565E-2
175 181 1.73669291067412E-2
175 182 1.749206539103697E-2
175 183 1.7609401787937684E-2
175 184 1.7719064665229864E-2
175 185 1.7821191232100925E-2
175 186 1.7915927130604605E-2
175 187 1.8003423992350137E-2
175 188 1.8083836986106463E-2
175 189 1.8157322382245468E-2
175 190 1.8224035159893903E-2
175 191 1.828412668232013E-2
175 192 1.833774246545088E-2
175 193 1.838502006349974E-2
175 194 1.842608709450202E-2
175 195 1.8461059427101703E-2
175 196 1.8490039548241178E-2
175 197 1.8513115129481904E-2
175 198 1.8530357807555436E-2
175 199 1.8541822192433673E-2
175 200 1.8547545113741373E-2
176 77 5.746833410330014E-5
176 78 6.41150117582164E-5
176 79 7.145099732471724E-5
176 80 7.953793557242816E-5
176 81 8.844184310713185E-5
176 82 9.8233293538506E-5
176 83 1.0898759679241744E-4
176 84 1.2078497065307907E-4
176 85 1.3371070247100844E-4
176 86 1.478552988261544E-4
176 87 1.6331462079362345E-4
176 88 1.801900023241393E-4
176 89 1.9858834912484408E-4
176 90 2.186222153105597E-4
176 91 2.404098549935424E-4
176 92 2.64075245893548E-4
176 93 2.8974808198221224E-4
176 94 3.175637321289198E-4
176 95 3.4766316169206583E-4
176 96 3.801928140025063E-4
176 97 4.153044487175457E-4
176 98 4.531549340864822E-4
176 99 4.939059902648149E-4
176 100 5.377238809458774E-4
176 101 5.847790507477894E-4
176 102 6.352457060019391E-4
176 103 6.893013368380249E-4
176 104 7.471261787510978E-4
176 105 8.089026121686099E-4
176 106 8.748144989104668E-4
176 107 9.450464548521614E-4
176 108 1.0197830585595082E-3
176 109 1.0992079961619481E-3
176 110 1.183503143267951E-3
176 111 1.2728475852982531E-3
176 112 1.367416578217387E-3
176 113 1.4673804522774983E-3
176 114 1.5729034620464647E-3
176 115 1.6841425866698377E-3
176 116 1.8012462850076334E-3
176 117 1.9243532109863046E-3
176 118 2.0535908952067335E-3
176 119 2.1890743995435897E-3
176 120 2.330904952152349E-3
176 121 2.4791685709596527E-3
176 122 2.633934684342309E-3
176 123 2.795254758291549E-3
176 124 2.9631609399036283E-3
176 125 3.1891182296943953E-3
176 126 3.376224012423291E-3
176 127 3.570515176088206E-3
176 128 3.771991185793325E-3
176 129 3.980630207525127E-3
176 130 4.196388267968896E-3
176 131 4.419198504993335E-3
176 132 4.648970518562467E-3
176 133 4.88558983145343E-3
176 134 5.128917468664321E-3
176 135 5.378789663787041E-3
176 136 5.635017699896623E-3
176 137 5.897387891672962E-3
176 138 6.165661714526537E-3
176 139 6.439576085451722E-3
176 140 6.718843799186085E-3
176 141 7.003154122019951E-3
176 142 7.292173544286785E-3
176 143 7.585546691182938E-3
176 144 7.882897390127354E-3
176 145 8.183829891391612E-3
176 146 8.4879302372233E-3
176 147 8.794767773166848E-3
176 148 9.103896793772742E-3
176 149 9.414858313395568E-3
176 150 9.727181951331954E-3
176 151 1.0040387919159148E-2
176 152 1.0353989096822006E-2
176 153 1.066749318279861E-2
176 154 1.0980404902570148E-2
176 155 1.129222825864589E-2
176 156 1.160246880456476E-2
176 157 1.1910635924626241E-2
176 158 1.2216245100607669E-2
176 159 1.2518820146414257E-2
176 160 1.281789539149198E-2
176 161 1.3113017793918746E-2
176 162 1.3403748964381804E-2
176 163 1.3689667082751234E-2
176 164 1.3970368689671154E-2
176 165 1.4245470336509239E-2
176 166 1.4514610078126343E-2
176 167 1.4777448794243288E-2
176 168 1.5033671326680922E-2
176 169 1.5282987421419272E-2
176 170 1.5525132466246021E-2
176 171 1.5759868016726193E-2
176 172 1.5986982105303114E-2
176 173 1.6206289330513796E-2
176 174 1.64176307255456E-2
176 175 1.662087340765049E-2
176 176 1.681591001224182E-2
176 177 1.7002657917799105E-2
176 178 1.7181058269971454E-2
176 179 1.7351074815471934E-2
176 180 1.7512692558466394E-2
176 181 1.7665916254153934E-2
176 182 1.781076875608672E-2
176 183 1.7947289235460233E-2
176 184 1.807553129209822E-2
176 185 1.8195560978139555E-2
176 186 1.830745475648886E-2
176 187 1.8411297416903297E-2
176 188 1.850717997314248E-2
176 189 1.859519756489731E-2
176 190 1.867544738823071E-2
176 191 1.874802667800593E-2
176 192 1.8813030765247745E-2
176 193 1.8870551231581593E-2
176 194 1.8920674181834827E-2
176 195 1.8963478654572485E-2
176 196 1.8999035188792965E-2
176 197 1.9027404563243352E-2
176 198 1.904863672285123E-2
176 199 1.9062769904631675E-2
176 200 1.906982997314119E-2
177 78 5.746833410330014E-5
177 79 6.41150117582164E-5
177 80 7.145099732471724E-5
177 81 7.953793557242816E-5
177 82 8.844184310713185E-5
177 83 9.8233293538506E-5
177 84 1.0898759679241744E-4
177 85 1.2078497065307907E-4
177 86 1.3371070247100844E-4
177 87 1.478552988261544E-4
177 88 1.6331462079362345E-4
177 89 1.801900023241393E-4
177 90 1.9858834912484408E-4
177 91 2.186222153105597E-4
177 92 2.404098549935424E-4
177 93 2.64075245893548E-4
177 94 2.8974808198221224E-4
177 95 3.175637321289198E-4
177 96 3.4766316169206583E-4
177 97 3.801928140025063E-4
177 98 4.153044487175457E-4
177 99 4.531549340864822E-4
177 100 4.939059902648149E-4
177 101 5.377238809458774E-4
177 102 5.847790507477894E-4
177 103 6.352457060019391E-4
177 104 6.893013368380249E-4
177 105 7.471261787510978E-4
177 106 8.089026121686099E-4
177 107 8.748144989104668E-4
177 108 9.450464548521614E-4
177 109 1.0197830585595082E-3
177 110 1.0992079961619481E-3
177 111 1.183503143267951E-3
177 112 1.2728475852982531E-3
177 113 1.367416578217387E-3
177 114 1.4673804522774983E-3
177 115 1.5729034620464647E-3
177 116 1.6841425866698377E-3
177 117 1.8012462850076334E-3
177 118 1.9243532109863046E-3
177 119 2.0535908952067335E-3
177 120 2.1890743995435897E-3
177 121 2.330904952152349E-3
177 122 2.4791685709596527E-3
177 123 2.633934684342309E-3
177 124 2.846708260459103E-3
177 125 3.0206292740069286E-3
177 126 3.2017797392850577E-3
177 127 3.390206675644708E-3
177 128 3.585938099902418E-3
177 129 3.788982031575739E-3
177 130 3.999325565491205E-3
177 131 4.216934021654181E-3
177 132 4.441750182107909E-3
177 133 4.673693624241058E-3
177 134 4.912660159626505E-3
177 135 5.158521386986936E-3
177 136 5.411124367285026E-3
177 137 5.670291428227844E-3
177 138 5.935820104659382E-3
177 139 6.207483220395236E-3
177 140 6.485029116034709E-3
177 141 6.768182026174754E-3
177 142 7.056642608255323E-3
177 143 7.3500886239966385E-3
177 144 7.648175773056524E-3
177 145 7.950538677152832E-3
177 146 8.256792011475588E-3
177 147 8.56653177877057E-3
177 148 8.879336720026243E-3
177 149 9.194769854255717E-3
177 150 9.51238013845163E-3
177 151 9.831704237422188E-3
177 152 1.0152268391908307E-2
177 153 1.0473590372152591E-2
177 154 1.0795181502957978E-2
177 155 1.11165487452537E-2
177 156 1.1437196818294932E-2
177 157 1.1756630345874547E-2
177 158 1.2074356009334684E-2
177 159 1.2389884689743974E-2
177 160 1.2702733581363694E-2
177 161 1.3012428258471227E-2
177 162 1.3318504677747823E-2
177 163 1.3620511098774142E-2
177 164 1.3918009905712403E-2
177 165 1.4210579313987622E-2
177 166 1.4497814946708338E-2
177 167 1.4779331266683628E-2
177 168 1.5054762851188903E-2
177 169 1.5323765498096985E-2
177 170 1.5586017153609232E-2
177 171 1.5841218653577918E-2
177 172 1.608909427228751E-2
177 173 1.632939207453841E-2
177 174 1.656188406893016E-2
177 175 1.6786366162348746E-2
177 176 1.7002657917799105E-2
177 177 1.721060211986453E-2
177 178 1.7410064154192263E-2
177 179 1.7600931209473585E-2
177 180 1.778311131238022E-2
177 181 1.7956532207811918E-2
177 182 1.8121140098577196E-2
177 183 1.8276898260247254E-2
177 184 1.8423785548369924E-2
177 185 1.8561794816486156E-2
177 186 1.8690931264438247E-2
177 187 1.88112107372812E-2
177 188 1.8922657995694148E-2
177 189 1.902530497912772E-2
177 190 1.9119189083009344E-2
177 191 1.9204351471158322E-2
177 192 1.9280835444136647E-2
177 193 1.9348684883582833E-2
177 194 1.940794279165206E-2
177 195 1.9458649943526085E-2
177 196 1.950084366957466E-2
177 197 1.9534556782162288E-2
177 198 1.9559816660319588E-2
177 199 1.9576644503558747E-2
177 200 1.9585054764031495E-2
178 79 5.746833410330014E-5
178 80 6.41150117582164E-5
178 81 7.145099732471724E-5
178 82 7.953793557242816E-5
178 83 8.844184310713185E-5
178 84 9.8233293538506E-5
178 85 1.0898759679241744E-4
178 86 1.2078497065307907E-4
178 87 1.3371070247100844E-4
178 88 1.478552988261544E-4
178 89 1.6331462079362345E-4
178 90 1.801900023241393E-4
178 91 1.9858834912484408E-4
178 92 2.186222153105597E-4
178 93 2.404098549935424E-4
178 94 2.64075245893548E-4
178 95 2.8974808198221224E-4
178 96 3.175637321289198E-4
178 97 3.4766316169206583E-4
178 98 3.801928140025063E-4
178 99 4.153044487175457E-4
178 100 4.531549340864822E-4
178 101 4.939059902648149E-4
178 102 5.377238809458774E-4
178 103 5.847790507477894E-4
178 104 6.352457060019391E-4
178 105 6.893013368380249E-4
178 106 7.471261787510978E-4
178 107 8.089026121686099E-4
178 108 8.748144989104668E-4
178 109 9.450464548521614E-4
178 110 1.0197830585595082E-3
178 111 1.0992079961619481E-3
178 112 1.183503143267951E-3
178 113 1.2728475852982531E-3
178 114 1.367416578217387E-3
178 115 1.4673804522774983E-3
178 116 1.5729034620464647E-3
178 117 1.6841425866698377E-3
178 118 1.8012462850076334E-3
178 119 1.9243532109863046E-3
178 120 2.0535908952067335E-3
178 121 2.1890743995435897E-3
178 122 2.330904952152349E-3
178 123 2.5306220731272067E-3
178 124 2.6914030184456094E-3
178 125 2.8593697700497653E-3
178 126 3.0346119372283457E-3
178 127 3.2172026630992697E-3
178 128 3.4071975214271222E-3
178 129 3.6046334578684956E-3
178 130 3.809527785261025E-3
178 131 4.0218772426057784E-3
178 132 4.241657127332772E-3
178 133 4.468820510280984E-3
178 134 4.703297542563673E-3
178 135 4.94499486312449E-3
178 136 5.193795115318156E-3
178 137 5.449556580271447E-3
178 138 5.712112934096542E-3
178 139 5.98127313524237E-3
178 140 6.256821447383905E-3
178 141 6.538517602270082E-3
178 142 6.826097105884608E-3
178 143 7.11927169012891E-3
178 144 7.4177299110221185E-3
178 145 7.7211378931405E-3
178 146 8.029140218700102E-3
178 147 8.341360958334983E-3
178 148 8.657404839253544E-3
178 149 8.976858545082305E-3
178 150 9.29929214034595E-3
178 151 9.624260611200789E-3
178 152 9.951305512752773E-3
178 153 1.0279956712067675E-2
178 154 1.0609734214836143E-2
178 155 1.094015006260702E-2
178 156 1.1270710286563486E-2
178 157 1.1600916903003375E-2
178 158 1.1930269935010852E-2
178 159 1.225826944428412E-2
178 160 1.258441755672322E-2
178 161 1.2908220465192771E-2
178 162 1.3229190392863565E-2
178 163 1.3546847500708992E-2
178 164 1.386072172309061E-2
178 165 1.4170354515911504E-2
178 166 1.4475300502544907E-2
178 167 1.4775129003653954E-2
178 168 1.5069425438099691E-2
178 169 1.5357792583378863E-2
178 170 1.563985168542888E-2
178 171 1.591524340917055E-2
178 172 1.618362862281321E-2
178 173 1.6444689010703874E-2
178 174 1.6698127511341556E-2
178 175 1.6943668579078777E-2
178 176 1.7181058269971454E-2
178 177 1.7410064154192263E-2
178 178 1.763047505936666E-2
178 179 1.7842100651100548E-2
178 180 1.8044770858819108E-2
178 181 1.823833515680348E-2
178 182 1.8422661711972453E-2
178 183 1.8597636411486883E-2
178 184 1.876316178463519E-2
178 185 1.8919155834668615E-2
178 186 1.9065550797278494E-2
178 187 1.9202291843229094E-2
178 188 1.932933574326644E-2
178 189 1.9446649513806178E-2
178 190 1.9554209062055336E-2
178 191 1.9651997849140058E-2
178 192 1.974000558949341E-2
178 193 1.9818227004207115E-2
178 194 1.988666064527409E-2
178 195 1.9945307806654232E-2
178 196 1.999417153689541E-2
178 197 2.0033255766650895E-2
178 198 2.0062564562869808E-2
178 199 2.0082101519719404E-2
178 200 2.009186929444905E-2
179 80 5.746833410330014E-5
179 81 6.41150117582164E-5
179 82 7.145099732471724E-5
179 83 7.953793557242816E-5
179 84 8.844184310713185E-5
179 85 9.8233293538506E-5
179 86 1.0898759679241744E-4
179 87 1.2078497065307907E-4
179 88 1.3371070247100844E-4
179 89 1.478552988261544E-4
179 90 1.6331462079362345E-4
179 91 1.801900023241393E-4
179 92 1.9858834912484408E-4
179 93 2.186222153105597E-4
179 94 2.404098549935424E-4
179 95 2.64075245893548E-4
179 96 2.8974808198221224E-4
179 97 3.175637321289198E-4
179 98 3.4766316169206583E-4
179 99 3.801928140025063E-4
179 100 4.153044487175457E-4
179 101 4.531549340864822E-4
179 102 4.939059902648149E-4
179 103 5.377238809458774E-4
179 104 5.847790507477894E-4
179 105 6.352457060019391E-4
179 106 6.893013368380249E-4
179 107 7.471261787510978E-4
179 108 8.089026121686099E-4
179 109 8.748144989104668E-4
179 110 9.450464548521614E-4
179 111 1.0197830585595082E-3
179 112 1.0992079961619481E-3
179 113 1.183503143267951E-3
179 114 1.2728475852982531E-3
179 115 1.367416578217387E-3
179 116 1.4673804522774983E-3
179 117 1.5729034620464647E-3
179 118 1.6841425866698377E-3
179 119 1.8012462850076334E-3
179 120 1.9243532109863046E-3
179 121 2.0535908952067335E-3
179 122 2.2405279017111437E-3
179 123 2.3883732862556495E-3
179 124 2.543283582717869E-3
179 125 2.7053856816670265E-3
179 126 2.8747926938639773E-3
179 127 3.05160278301076E-3
179 128 3.2358980210653475E-3
179 129 3.427743275112408E-3
179 130 3.6271851349830688E-3
179 131 3.834250890939616E-3
179 132 4.048947570778854E-3
179 133 4.271261045655388E-3
179 134 4.501155213778969E-3
179 135 4.738571270894894E-3
179 136 4.9834270761109105E-3
179 137 5.235616621186855E-3
179 138 5.495009610854434E-3
179 139 5.761451161085212E-3
179 140 6.034761621477742E-3
179 141 6.314736527093759E-3
179 142 6.601146684143668E-3
179 143 6.893738392910088E-3
179 144 7.192233810212886E-3
179 145 7.4963314525693875E-3
179 146 7.805706839999895E-3
179 147 8.120013279183077E-3
179 148 8.438882783391045E-3
179 149 8.761927125343778E-3
179 150 9.088739017831464E-3
179 151 9.418893415676536E-3
179 152 9.751948931360157E-3
179 153 1.0087449355436325E-2
179 154 1.0424925271716717E-2
179 155 1.076389575614593E-2
179 156 1.1103870147315462E-2
179 157 1.1444349875699792E-2
179 158 1.1784830337952811E-2
179 159 1.2124802801990096E-2
179 160 1.2463756328113198E-2
179 161 1.2801179691115558E-2
179 162 1.313656328815394E-2
179 163 1.3469401017180032E-2
179 164 1.3799192110908094E-2
179 165 1.4125442911647895E-2
179 166 1.444766857285712E-2
179 167 1.476539467396097E-2
179 168 1.5078158735843915E-2
179 169 1.5385511625431586E-2
179 170 1.568701883894018E-2
179 171 1.5982261654664175E-2
179 172 1.6270838147586914E-2
179 173 1.6552364059616357E-2
179 174 1.682647352085249E-2
179 175 1.7092819618964264E-2
179 176 1.7351074815471934E-2
179 177 1.7600931209473585E-2
179 178 1.7842100651100548E-2
179 179 1.807431470871218E-2
179 180 1.8297324495523813E-2
179 181 1.8510900362979643E-2
179 182 1.871483146971317E-2
179 183 1.890892523636039E-2
179 184 1.9093006697785575E-2
179 185 1.926691776542753E-2
179 186 1.9430516413459463E-2
179 187 1.9583675803263735E-2
179 188 1.9726283361341128E-2
179 189 1.9858239826194057E-2
179 190 1.997945827993689E-2
179 191 2.0089863180390424E-2
179 192 2.018938940921052E-2
179 193 2.0277981351184672E-2
179 194 2.0355592019209286E-2
179 195 2.0422182238643418E-2
179 196 2.047771990373047E-2
179 197 2.052217931760293E-2
179 198 2.0555540626050715E-2
179 199 2.057778935376011E-2
179 200 2.0588916050136963E-2
180 81 5.746833410330014E-5
180 82 6.41150117582164E-5
180 83 7.145099732471724E-5
180 84 7.953793557242816E-5
180 85 8.844184310713185E-5
180 86 9.8233293538506E-5
180 87 1.0898759679241744E-4
180 88 1.2078497065307907E-4
180 89 1.3371070247100844E-4
180 90 1.478552988261544E-4
180 91 1.6331462079362345E-4
180 92 1.801900023241393E-4
180 93 1.9858834912484408E-4
180 94 2.186222153105597E-4
180 95 2.404098549935424E-4
180 96 2.64075245893548E-4
180 97 2.8974808198221224E-4
180 98 3.175637321289198E-4
180 99 3.4766316169206583E-4
180 100 3.801928140025063E-4
180 101 4.153044487175457E-4
180 102 4.531549340864822E-4
180 103 4.939059902648149E-4
180 104 5.377238809458774E-4
180 105 5.847790507477894E-4
180 106 6.352457060019391E-4
180 107 6.893013368380249E-4
180 108 7.471261787510978E-4
180 109 8.089026121686099E-4
180 110 8.748144989104668E-4
180 111 9.450464548521614E-4
180 112 1.0197830585595082E-3
180 113 1.0992079961619481E-3
180 114 1.183503143267951E-3
180 115 1.2728475852982531E-3
180 116 1.367416578217387E-3
180 117 1.4673804522774983E-3
180 118 1.5729034620464647E-3
180 119 1.6841425866698377E-3
180 120 1.8012462850076334E-3
180 121 1.9758067131538585E-3
180 122 2.111059229310034E-3
180 123 2.253189411301806E-3
180 124 2.4023559494770665E-3
180 125 2.558706506532081E-3
180 126 2.7223765274494408E-3
180 127 2.893488051830055E-3
180 128 3.072148536696046E-3
180 129 3.2584496981799206E-3
180 130 3.452466380790999E-3
180 131 3.654255463156144E-3
180 132 3.863854809262231E-3
180 133 4.0812822742768385E-3
180 134 4.306534773986608E-3
180 135 4.53958742676539E-3
180 136 4.780392776763592E-3
180 137 5.028880106693898E-3
180 138 5.284954848175524E-3
180 139 5.5484980970898065E-3
180 140 5.819366240795066E-3
180 141 6.097390703351329E-3
180 142 6.382377814119239E-3
180 143 6.674108804227644E-3
180 144 6.972339934457357E-3
180 145 7.2768027570722805E-3
180 146 7.587204513052362E-3
180 147 7.903228665055956E-3
180 148 8.224535565273312E-3
180 149 8.550763256140204E-3
180 150 8.881528400674363E-3
180 151 9.216427337990832E-3
180 152 9.555037258360087E-3
180 153 9.896917491009198E-3
180 154 1.0241610896746111E-2
180 155 1.058864535642516E-2
180 156 1.0937535345282235E-2
180 157 1.1287783582264899E-2
180 158 1.1638882742679036E-2
180 159 1.1990317221781888E-2
180 160 1.2341564936382436E-2
180 161 1.2692099151074367E-2
180 162 1.3041390315432026E-2
180 163 1.338890789835304E-2
180 164 1.3734122205737317E-2
180 165 1.407650616785371E-2
180 166 1.4415537083063958E-2
180 167 1.475069830504708E-2
180 168 1.5081480861292865E-2
180 169 1.5407384991405234E-2
180 170 1.572792159466688E-2
180 171 1.6042613577356545E-2
180 172 1.6350997091467322E-2
180 173 1.665262265773553E-2
180 174 1.694705616723907E-2
180 175 1.723387975724565E-2
180 176 1.7512692558466394E-2
180 177 1.778311131238022E-2
180 178 1.8044770858819108E-2
180 179 1.8297324495523813E-2
180 180 1.8540444212872716E-2
180 181 1.8773820808433497E-2
180 182 1.899716388736758E-2
180 183 1.921020175601186E-2
180 184 1.9412681217152727E-2
180 185 1.9604367276576426E-2
180 186 1.978504277141277E-2
180 187 1.9954507931571497E-2
180 188 2.0112579886191348E-2
180 189 2.025909212747184E-2
180 190 2.0393893944529146E-2
180 191 2.051684984000736E-2
180 192 2.0627838942081683E-2
180 193 2.0726754424212696E-2
180 194 2.0813502944553995E-2
180 195 2.0888004116285525E-2
180 196 2.0950190019350938E-2
180 197 2.100000476313029E-2
180 198 2.103740410849323E-2
180 199 2.1062355156468274E-2
180 200 2.1074836109448023E-2
181 82 5.746833410330014E-5
181 83 6.41150117582164E-5
181 84 7.145099732471724E-5
181 85 7.953793557242816E-5
181 86 8.844184310713185E-5
181 87 9.8233293538506E-5
181 88 1.0898759679241744E-4
181 89 1.2078497065307907E-4
181 90 1.3371070247100844E-4
181 91 1.478552988261544E-4
181 92 1.6331462079362345E-4
181 93 1.801900023241393E-4
181 94 1.9858834912484408E-4
181 95 2.186222153105597E-4
181 96 2.404098549935424E-4
181 97 2.64075245893548E-4
181 98 2.8974808198221224E-4
181 99 3.175637321289198E-4
181 100 3.4766316169206583E-4
181 101 3.801928140025063E-4
181 102 4.153044487175457E-4
181 103 4.531549340864822E-4
181 104 4.939059902648149E-4
181 105 5.377238809458774E-4
181 106 5.847790507477894E-4
181 107 6.352457060019391E-4
181 108 6.893013368380249E-4
181 109 7.471261787510978E-4
181 110 8.089026121686099E-4
181 111 8.748144989104668E-4
181 112 9.450464548521614E-4
181 113 1.0197830585595082E-3
181 114 1.0992079961619481E-3
181 115 1.183503143267951E-3
181 116 1.2728475852982531E-3
181 117 1.367416578217387E-3
181 118 1.4673804522774983E-3
181 119 1.5729034620464647E-3
181 120 1.7355960888373917E-3
181 121 1.8587146191109336E-3
181 122 1.988468222744521E-3
181 123 2.125041892531451E-3
181 124 2.268612335116018E-3
181 125 2.419346795259481E-3
181 126 2.577401864498159E-3
181 127 2.7429222811347267E-3
181 128 2.9160397289446282E-3
181 129 3.0968716423746367E-3
181 130 3.285520026352996E-3
181 131 3.482070299113614E-3
181 132 3.686590166654129E-3
181 133 3.8991285375934515E-3
181 134 4.119714487263259E-3
181 135 4.348356279855307E-3
181 136 4.585040457348377E-3
181 137 4.829731003752262E-3
181 138 5.08236859292927E-3
181 139 5.342869927885378E-3
181 140 5.611127178963393E-3
181 141 5.887007527820546E-3
181 142 6.170352823435305E-3
181 143 6.460979355666508E-3
181 144 6.758677751087039E-3
181 145 7.063212994940332E-3
181 146 7.374324582128342E-3
181 147 7.691726799142598E-3
181 148 8.015109137805116E-3
181 149 8.344136840603898E-3
181 150 8.678451576299573E-3
181 151 9.017672243357915E-3
181 152 9.361395897639874E-3
181 153 9.709198799669874E-3
181 154 1.0060637575717641E-2
181 155 1.0415250485882417E-2
181 156 1.0772558791374596E-2
181 157 1.1132068212261481E-2
181 158 1.1493270466093976E-2
181 159 1.1855644877071376E-2
181 160 1.2218660044743057E-2
181 161 1.2581775560698904E-2
181 162 1.2944443761273468E-2
181 163 1.3306111503989311E-2
181 164 1.3666221955298655E-2
181 165 1.402421637715338E-2
181 166 1.4379535900043669E-2
181 167 1.4731623270395854E-2
181 168 1.5079924560608398E-2
181 169 1.5423890830528158E-2
181 170 1.5762979729821595E-2
181 171 1.609665703147003E-2
181 172 1.6424398087505163E-2
181 173 1.674568919909003E-2
181 174 1.7060028894128686E-2
181 175 1.73669291067412E-2
181 176 1.7665916254153934E-2
181 177 1.7956532207811918E-2
181 178 1.823833515680348E-2
181 179 1.8510900362979643E-2
181 180 1.8773820808433497E-2
181 181 1.9026707737260652E-2
181 182 1.9269191094732192E-2
181 183 1.9500919868159917E-2
181 184 1.972156233480271E-2
181 185 1.993080622313797E-2
181 186 2.0128358794688456E-2
181 187 2.0313946854340386E-2
181 188 2.048731669770221E-2
181 189 2.0648234004526436E-2
181 190 2.0796483687542305E-2
181 191 2.0931869706220404E-2
181 192 2.105421485500953E-2
181 193 2.116336053545101E-2
181 194 2.125916652128893E-2
181 195 2.134151072526151E-2
181 196 2.141028897568534E-2
181 197 2.1465414810241237E-2
181 198 2.1506819293547846E-2
181 199 2.1534450864181147E-2
181 200 2.154827521577933E-2
182 83 5.746833410330014E-5
182 84 6.41150117582164E-5
182 85 7.145099732471724E-5
182 86 7.953793557242816E-5
182 87 8.844184310713185E-5
182 88 9.8233293538506E-5
182 89 1.0898759679241744E-4
182 90 1.2078497065307907E-4
182 91 1.3371070247100844E-4
182 92 1.478552988261544E-4
182 93 1.6331462079362345E-4
182 94 1.801900023241393E-4
182 95 1.9858834912484408E-4
182 96 2.186222153105597E-4
182 97 2.404098549935424E-4
182 98 2.64075245893548E-4
182 99 2.8974808198221224E-4
182 100 3.175637321289198E-4
182 101 3.4766316169206583E-4
182 102 3.801928140025063E-4
182 103 4.153044487175457E-4
182 104 4.531549340864822E-4
182 105 4.939059902648149E-4
182 106 5.377238809458774E-4
182 107 5.847790507477894E-4
182 108 6.352457060019391E-4
182 109 6.893013368380249E-4
182 110 7.471261787510978E-4
182 111 8.089026121686099E-4
182 112 8.748144989104668E-4
182 113 9.450464548521614E-4
182 114 1.0197830585595082E-3
182 115 1.0992079961619481E-3
182 116 1.183503143267951E-3
182 117 1.2728475852982531E-3
182 118 1.367416578217387E-3
182 119 1.5188339544450523E-3
182 120 1.6303717961497649E-3
182 121 1.748257598428054E-3
182 122 1.8726972823323506E-3
182 123 2.003891146558733E-3
182 124 2.1420327383138652E-3
182 125 2.2873076930820958E-3
182 126 2.4398925489447667E-3
182 127 2.599953541612732E-3
182 128 2.7676453868133175E-3
182 129 2.9431100571177034E-3
182 130 3.1264755606972517E-3
182 131 3.3178547298509807E-3
182 132 3.5173440274448345E-3
182 133 3.725022379640549E-3
182 134 3.94095004346215E-3
182 135 4.165167517846247E-3
182 136 4.397694506843976E-3
182 137 4.63852894358375E-3
182 138 4.8876460834621155E-3
182 139 5.144997674802857E-3
182 140 5.410511214910858E-3
182 141 5.684089299047369E-3
182 142 5.965609069367815E-3
182 143 6.2549217702947E-3
182 144 6.551852416149482E-3
182 145 6.8561995761431006E-3
182 146 7.1677352810305675E-3
182 147 7.486205054877501E-3
182 148 7.811328074473182E-3
182 149 8.142797457964484E-3
182 150 8.480280683287449E-3
182 151 8.823420135948614E-3
182 152 9.171833784667701E-3
182 153 9.525115982348316E-3
182 154 9.88283838880618E-3
182 155 1.0244551010667078E-2
182 156 1.0609783352861661E-2
182 157 1.0978045675203673E-2
182 158 1.134883034665382E-2
182 159 1.1721613289055145E-2
182 160 1.2095855501387844E-2
182 161 1.2471004654942157E-2
182 162 1.2846496749256189E-2
182 163 1.3221757818219083E-2
182 164 1.3596205675405374E-2
182 165 1.3969251687488617E-2
182 166 1.4340302564485277E-2
182 167 1.4708762155604987E-2
182 168 1.5074033239631145E-2
182 169 1.543551929902476E-2
182 170 1.5792626267331307E-2
182 171 1.6144764239970213E-2
182 172 1.6491349139092736E-2
182 173 1.6831804323898317E-2
182 174 1.716556213859216E-2
182 175 1.749206539103697E-2
182 176 1.781076875608672E-2
182 177 1.8121140098577196E-2
182 178 1.8422661711972453E-2
182 179 1.871483146971317E-2
182 180 1.899716388736758E-2
182 181 1.9269191094732192E-2
182 182 1.953046371805299E-2
182 183 1.9780551673523043E-2
182 184 2.001904487414516E-2
182 185 2.0245553852914742E-2
182 186 2.045971030606558E-2
182 187 2.066116756081917E-2
182 188 2.0849600972675474E-2
182 189 2.1024708257772674E-2
182 190 2.1186209766217698E-2
182 191 2.133384870254448E-2
182 192 2.146739129958973E-2
182 193 2.158662695208577E-2
182 194 2.1691368316158526E-2
182 195 2.178145138068875E-2
182 196 2.1856735516151818E-2
182 197 2.1917103506102896E-2
182 198 2.1962461565929153E-2
182 199 2.1992739352858906E-2
182 200 2.2007889970512454E-2
183 84 5.746833410330014E-5
183 85 6.41150117582164E-5
183 86 7.145099732471724E-5
183 87 7.953793557242816E-5
183 88 8.844184310713185E-5
183 89 9.8233293538506E-5
183 90 1.0898759679241744E-4
183 91 1.2078497065307907E-4
183 92 1.3371070247100844E-4
183 93 1.478552988261544E-4
183 94 1.6331462079362345E-4
183 95 1.801900023241393E-4
183 96 1.9858834912484408E-4
183 97 2.186222153105597E-4
183 98 2.404098549935424E-4
183 99 2.64075245893548E-4
183 100 2.8974808198221224E-4
183 101 3.175637321289198E-4
183 102 3.4766316169206583E-4
183 103 3.801928140025063E-4
183 104 4.153044487175457E-4
183 105 4.531549340864822E-4
183 106 4.939059902648149E-4
183 107 5.377238809458774E-4
183 108 5.847790507477894E-4
183 109 6.352457060019391E-4
183 110 6.893013368380249E-4
183 111 7.471261787510978E-4
183 112 8.089026121686099E-4
183 113 8.748144989104668E-4
183 114 9.450464548521614E-4
183 115 1.0197830585595082E-3
183 116 1.0992079961619481E-3
183 117 1.183503143267951E-3
183 118 1.3243010874658071E-3
183 119 1.424884912320687E-3
183 120 1.5314954640357147E-3
183 121 1.644354459371182E-3
183 122 1.7636805222422658E-3
183 123 1.8896881281147654E-3
183 124 2.0225865045248106E-3
183 125 2.162578491999151E-3
183 126 2.309859370196669E-3
183 127 2.4646156546233576E-3
183 128 2.627023869785807E-3
183 129 2.7972493051359325E-3
183 130 2.9754447606156883E-3
183 131 3.1617492890284723E-3
183 132 3.356286942837401E-3
183 133 3.559165533313533E-3
183 134 3.7704754102235376E-3
183 135 3.9902882704508195E-3
183 136 4.218656004081619E-3
183 137 4.45560958655383E-3
183 138 4.701158025457336E-3
183 139 4.9552873704875955E-3
183 140 5.217959794886833E-3
183 141 5.489112756458127E-3
183 142 5.768658245906764E-3
183 143 6.056482129850789E-3
183 144 6.352443595350761E-3
183 145 6.656374702239718E-3
183 146 6.96808004889226E-3
183 147 7.287336556361152E-3
183 148 7.61389337503687E-3
183 149 7.947471917156734E-3
183 150 8.287766017613525E-3
183 151 8.634442224597236E-3
183 152 8.987140220657056E-3
183 153 9.345473373804007E-3
183 154 9.709029417297753E-3
183 155 1.0077371255785426E-2
183 156 1.0450037894496155E-2
183 157 1.0826545487254001E-2
183 158 1.1206388498164842E-2
183 159 1.1589040970970287E-2
183 160 1.1973957899254244E-2
183 161 1.2360576689945129E-2
183 162 1.2748318711887772E-2
183 163 1.3136590920672252E-2
183 164 1.3524787550409043E-2
183 165 1.391229186273727E-2
183 166 1.4298477943049935E-2
183 167 1.4682712533720568E-2
183 168 1.506435689402135E-2
183 169 1.5442768676434293E-2
183 170 1.581730380917338E-2
183 171 1.6187318374954015E-2
183 172 1.655217047636337E-2
183 173 1.6911222078594867E-2
183 174 1.7263840820806602E-2
183 175 1.7609401787937684E-2
183 176 1.7947289235460233E-2
183 177 1.8276898260247254E-2
183 178 1.8597636411486883E-2
183 179 1.890892523636039E-2
183 180 1.921020175601186E-2
183 181 1.9500919868159917E-2
183 182 1.9780551673523043E-2
183 183 2.004858872403823E-2
183 184 2.030454319163507E-2
183 185 2.054794895707277E-2
183 186 2.0778362619045455E-2
183 187 2.099536442440067E-2
183 188 2.1198559120889637E-2
183 189 2.1387576734366733E-2
183 190 2.156207327277485E-2
183 191 2.172173135958702E-2
183 192 2.1866260799620715E-2
183 193 2.1995399080297247E-2
183 194 2.210891181148559E-2
183 195 2.220659310704883E-2
183 196 2.228826591110631E-2
183 197 2.2353782271839727E-2
183 198 2.240302356541396E-2
183 199 2.243590067226046E-2
183 200 2.2452354107592026E-2
184 85 5.746833410330014E-5
184 86 6.41150117582164E-5
184 87 7.145099732471724E-5
184 88 7.953793557242816E-5
184 89 8.844184310713185E-5
184 90 9.8233293538506E-5
184 91 1.0898759679241744E-4
184 92 1.2078497065307907E-4
184 93 1.3371070247100844E-4
184 94 1.478552988261544E-4
184 95 1.6331462079362345E-4
184 96 1.801900023241393E-4
184 97 1.9858834912484408E-4
184 98 2.186222153105597E-4
184 99 2.404098549935424E-4
184 100 2.64075245893548E-4
184 101 2.8974808198221224E-4
184 102 3.175637321289198E-4
184 103 3.4766316169206583E-4
184 104 3.801928140025063E-4
184 105 4.153044487175457E-4
184 106 4.531549340864822E-4
184 107 4.939059902648149E-4
184 108 5.377238809458774E-4
184 109 5.847790507477894E-4
184 110 6.352457060019391E-4
184 111 6.893013368380249E-4
184 112 7.471261787510978E-4
184 113 8.089026121686099E-4
184 114 8.748144989104668E-4
184 115 9.450464548521614E-4
184 116 1.0197830585595082E-3
184 117 1.150661498329502E-3
184 118 1.240971477371251E-3
184 119 1.3369625970564695E-3
184 120 1.4388675755421041E-3
184 121 1.5469183878499264E-3
184 122 1.6613453051535967E-3
184 123 1.7823758802083438E-3
184 124 1.9102338818000508E-3
184 125 2.045138181639384E-3
184 126 2.187301597677742E-3
184 127 2.336929698369744E-3
184 128 2.4942195729459726E-3
184 129 2.659358573283792E-3
184 130 2.832523033467153E-3
184 131 3.0138769736021086E-3
184 132 3.203570794897171E-3
184 133 3.4017399734203894E-3
184 134 3.6085037603022026E-3
184 135 3.8239638964589094E-3
184 136 4.048203350160673E-3
184 137 4.281285085955206E-3
184 138 4.52325087357931E-3
184 139 4.774120145541312E-3
184 140 5.0338889120348645E-3
184 141 5.302528741746228E-3
184 142 5.5799858169411016E-3
184 143 5.866180070962825E-3
184 144 6.161004415941025E-3
184 145 6.46432406809992E-3
184 146 6.7759759775703025E-3
184 147 7.095768369051628E-3
184 148 7.423480399044704E-3
184 149 7.758861934685911E-3
184 150 8.10163345846652E-3
184 151 8.451486102321968E-3
184 152 8.808081813733541E-3
184 153 9.171053655606493E-3
184 154 9.540006240783251E-3
184 155 9.91451630112683E-3
184 156 1.0294133390177764E-2
184 157 1.0678380717457324E-2
184 158 1.1066756111570469E-2
184 159 1.1458733108363942E-2
184 160 1.1853762159527572E-2
184 161 1.225127195619986E-2
184 162 1.2650670861361192E-2
184 163 1.3051348444077734E-2
184 164 1.3452677108004147E-2
184 165 1.3854013805970362E-2
184 166 1.4254701831972562E-2
184 167 1.4654072681466297E-2
184 168 1.5051447970523716E-2
184 169 1.5446141404169967E-2
184 170 1.5837460784057004E-2
184 171 1.6224710045566533E-2
184 172 1.6607191314456145E-2
184 173 1.6984206973271656E-2
184 174 1.7355061727940387E-2
184 175 1.7719064665229864E-2
184 176 1.807553129209822E-2
184 177 1.8423785548369924E-2
184 178 1.876316178463519E-2
184 179 1.9093006697785575E-2
184 180 1.9412681217152727E-2
184 181 1.972156233480271E-2
184 182 2.001904487414516E-2
184 183 2.030454319163507E-2
184 184 2.0577492806965848E-2
184 185 2.0837351957765787E-2
184 186 2.108360307540786E-2
184 187 2.1315754179115923E-2
184 188 2.153334018609193E-2
184 189 2.173592413589181E-2
184 190 2.192309832773606E-2
184 191 2.2094485369851084E-2
184 192 2.224973914029454E-2
184 193 2.2388545659020535E-2
184 194 2.251062387118755E-2
184 195 2.2615726341903144E-2
184 196 2.270363986273674E-2
184 197 2.2774185970417367E-2
184 198 2.2827221378171038E-2
184 199 2.286263832014708E-2
184 200 2.2880364809340033E-2
185 86 5.746833410330014E-5
185 87 6.41150117582164E-5
185 88 7.145099732471724E-5
185 89 7.953793557242816E-5
185 90 8.844184310713185E-5
185 91 9.8233293538506E-5
185 92 1.0898759679241744E-4
185 93 1.2078497065307907E-4
185 94 1.3371070247100844E-4
185 95 1.478552988261544E-4
185 96 1.6331462079362345E-4
185 97 1.801900023241393E-4
185 98 1.9858834912484408E-4
185 99 2.186222153105597E-4
185 100 2.404098549935424E-4
185 101 2.64075245893548E-4
185 102 2.8974808198221224E-4
185 103 3.175637321289198E-4
185 104 3.4766316169206583E-4
185 105 3.801928140025063E-4
185 106 4.153044487175457E-4
185 107 4.531549340864822E-4
185 108 4.939059902648149E-4
185 109 5.377238809458774E-4
185 110 5.847790507477894E-4
185 111 6.352457060019391E-4
185 112 6.893013368380249E-4
185 113 7.471261787510978E-4
185 114 8.089026121686099E-4
185 115 8.748144989104668E-4
185 116 9.964999570197155E-4
185 117 1.0772513926628083E-3
185 118 1.1633230079201645E-3
185 119 1.2549541405926681E-3
185 120 1.3523855208706812E-3
185 121 1.4558584213245189E-3
185 122 1.5656137458160044E-3
185 123 1.6818910588388821E-3
185 124 1.8049275573229168E-3
185 125 1.9349569874786419E-3
185 126 2.072208509812459E-3
185 127 2.216905516000357E-3
185 128 2.369264401867729E-3
185 129 2.529493301277193E-3
185 130 2.6977907862702124E-3
185 131 2.8743445393358516E-3
185 132 3.059330004185097E-3
185 133 3.2529090218858404E-3
185 134 3.4552284596557612E-3
185 135 3.6664188400120563E-3
185 136 3.8865929783324957E-3
185 137 4.115844637186153E-3
185 138 4.354247206039182E-3
185 139 4.601852415126579E-3
185 140 4.858689092400707E-3
185 141 5.124761972517839E-3
185 142 5.400050566802289E-3
185 143 5.684508103031337E-3
185 144 5.978060543711985E-3
185 145 6.280605691271609E-3
185 146 6.592012388259289E-3
185 147 6.912119820253855E-3
185 148 7.2407369287006695E-3
185 149 7.57764194035449E-3
185 150 7.922582019394353E-3
185 151 8.275273047602826E-3
185 152 8.635399537271405E-3
185 153 9.002614680712786E-3
185 154 9.37654053943557E-3
185 155 9.756768375175591E-3
185 156 1.0142859124088E-2
185 157 1.0534344014494232E-2
185 158 1.0930725327656425E-2
185 159 1.1331477300127754E-2
185 160 1.1736047165309557E-2
185 161 1.2143856330943635E-2
185 162 1.2554301688389821E-2
185 163 1.2966757048693087E-2
185 164 1.3380574699639053E-2
185 165 1.379508707723944E-2
185 166 1.4209608544386724E-2
185 167 1.462343726877571E-2
185 168 1.5035857191614915E-2
185 169 1.5446140078146427E-2
185 170 1.5853547640563122E-2
185 171 1.6257333723559135E-2
185 172 1.665674654247482E-2
185 173 1.7051030963801665E-2
185 174 1.7439430817694918E-2
185 175 1.7821191232100925E-2
185 176 1.8195560978139555E-2
185 177 1.8561794816486156E-2
185 178 1.8919155834668615E-2
185 179 1.926691776542753E-2
185 180 1.9604367276576426E-2
185 181 1.993080622313797E-2
185 182 2.0245553852914742E-2
185 183 2.054794895707277E-2
185 184 2.0837351957765787E-2
185 185 2.1113146925300936E-2
185 186 2.1374743517836255E-2
185 187 2.162157883709912E-2
185 188 2.1853119194118094E-2
185 189 2.2068861779461255E-2
185 190 2.2268336232968047E-2
185 191 2.245110610844358E-2
185 192 2.2616770229250904E-2
185 193 2.2764963931184844E-2
185 194 2.2895360189438094E-2
185 195 2.3007670626875462E-2
185 196 2.3101646401214204E-2
185 197 2.3177078969068052E-2
185 198 2.323380072515049E-2
185 199 2.3271685515250613E-2
185 200 2.3290649021895087E-2
186 87 5.746833410330014E-5
186 88 6.41150117582164E-5
186 89 7.145099732471724E-5
186 90 7.953793557242816E-5
186 91 8.844184310713185E-5
186 92 9.8233293538506E-5
186 93 1.0898759679241744E-4
186 94 1.2078497065307907E-4
186 95 1.3371070247100844E-4
186 96 1.478552988261544E-4
186 97 1.6331462079362345E-4
186 98 1.801900023241393E-4
186 99 1.9858834912484408E-4
186 100 2.186222153105597E-4
186 101 2.404098549935424E-4
186 102 2.64075245893548E-4
186 103 2.8974808198221224E-4
186 104 3.175637321289198E-4
186 105 3.4766316169206583E-4
186 106 3.801928140025063E-4
186 107 4.153044487175457E-4
186 108 4.531549340864822E-4
186 109 4.939059902648149E-4
186 110 5.377238809458774E-4
186 111 5.847790507477894E-4
186 112 6.352457060019391E-4
186 113 6.893013368380249E-4
186 114 7.471261787510978E-4
186 115 8.603561143361639E-4
186 116 9.322828330137669E-4
186 117 1.009161466610378E-3
186 118 1.0912340558842254E-3
186 119 1.1787459317343762E-3
186 120 1.2719449863750829E-3
186 121 1.3710808788367592E-3
186 122 1.4764041750098043E-3
186 123 1.5881654229305774E-3
186 124 1.7066141645174732E-3
186 125 1.8319978854959922E-3
186 126 1.9645609058012567E-3
186 127 2.104543213310444E-3
186 128 2.2521792443315775E-3
186 129 2.4076966148541493E-3
186 130 2.5713148071458917E-3
186 131 2.7432438168532008E-3
186 132 2.923682766324521E-3
186 133 3.112818490420469E-3
186 134 3.310824101595694E-3
186 135 3.5178575415293475E-3
186 136 3.7340601270375363E-3
186 137 3.959555098416472E-3
186 138 4.194446178733422E-3
186 139 4.4388161528985766E-3
186 140 4.6927254756095535E-3
186 141 4.9562109174567685E-3
186 142 5.229284258608075E-3
186 143 5.511931039551448E-3
186 144 5.804109378361922E-3
186 145 6.105748863871353E-3
186 146 6.416749533955162E-3
186 147 6.73698094790833E-3
186 148 7.066281361563641E-3
186 149 7.404457013409113E-3
186 150 7.7512815294907954E-3
186 151 8.10649545434379E-3
186 152 8.46980591458207E-3
186 153 8.840886421100482E-3
186 154 9.219376815105125E-3
186 155 9.60488336239674E-3
186 156 9.996978999492059E-3
186 157 1.0395203734287099E-2
186 158 1.0799065203051517E-2
186 159 1.120803938460204E-2
186 160 1.1621571471543817E-2
186 161 1.2039076897499518E-2
186 162 1.2459942518275532E-2
186 163 1.288352794395114E-2
186 164 1.330916701792838E-2
186 165 1.3736169438055414E-2
186 166 1.416382251404259E-2
186 167 1.4591393054535341E-2
186 168 1.5018129376398421E-2
186 169 1.5443263428008072E-2
186 170 1.5866013017648558E-2
186 171 1.6285584137471408E-2
186 172 1.6701173372904655E-2
186 173 1.711197038689808E-2
186 174 1.7517160467962204E-2
186 175 1.7915927130604605E-2
186 176 1.830745475648886E-2
186 177 1.8690931264438247E-2
186 178 1.9065550797278494E-2
186 179 1.9430516413459463E-2
186 180 1.978504277141277E-2
186 181 2.0128358794688456E-2
186 182 2.045971030606558E-2
186 183 2.0778362619045455E-2
186 184 2.108360307540786E-2
186 185 2.1374743517836255E-2
186 186 2.1651122686992194E-2
186 187 2.1912108532838426E-2
186 188 2.2157100430468445E-2
186 189 2.2385531291194333E-2
186 190 2.2596869560168775E-2
186 191 2.2790621092367867E-2
186 192 2.296633089933388E-2
186 193 2.3123584759668463E-2
186 194 2.3262010686872756E-2
186 195 2.338128024874915E-2
186 196 2.3481109733206773E-2
186 197 2.3561261155947325E-2
186 198 2.3621543106147624E-2
186 199 2.3661811426898497E-2
186 200 2.3681969727805664E-2
187 88 5.746833410330014E-5
187 89 6.41150117582164E-5
187 90 7.145099732471724E-5
187 91 7.953793557242816E-5
187 92 8.844184310713185E-5
187 93 9.8233293538506E-5
187 94 1.0898759679241744E-4
187 95 1.2078497065307907E-4
187 96 1.3371070247100844E-4
187 97 1.478552988261544E-4
187 98 1.6331462079362345E-4
187 99 1.801900023241393E-4
187 100 1.9858834912484408E-4
187 101 2.186222153105597E-4
187 102 2.404098549935424E-4
187 103 2.64075245893548E-4
187 104 2.8974808198221224E-4
187 105 3.175637321289198E-4
187 106 3.4766316169206583E-4
187 107 3.801928140025063E-4
187 108 4.153044487175457E-4
187 109 4.531549340864822E-4
187 110 4.939059902648149E-4
187 111 5.377238809458774E-4
187 112 5.847790507477894E-4
187 113 6.352457060019391E-4
187 114 7.407548390055789E-4
187 115 8.045945128543979E-4
187 116 8.730176239268262E-4
187 117 9.46265496235184E-4
187 118 1.0245843904245896E-3
187 119 1.10822490166664E-3
187 120 1.1974412897004542E-3
187 121 1.2924907400603683E-3
187 122 1.3936325559513322E-3
187 123 1.5011272806883954E-3
187 124 1.6152357511036528E-3
187 125 1.7362180828400882E-3
187 126 1.864332588993977E-3
187 127 1.9998346341324777E-3
187 128 2.142975426296864E-3
187 129 2.294000750200276E-3
187 130 2.4531496454371377E-3
187 131 2.620653034134561E-3
187 132 2.7967323030885726E-3
187 133 2.981597846034375E-3
187 134 3.175447572294055E-3
187 135 3.378465388621174E-3
187 136 3.5908196616133235E-3
187 137 3.8126616685848053E-3
187 138 4.044124045275867E-3
187 139 4.285319239216397E-3
187 140 4.536337977954638E-3
187 141 4.797247761699789E-3
187 142 5.068091390205928E-3
187 143 5.34888553393866E-3
187 144 5.639619359710817E-3
187 145 5.940253221045474E-3
187 146 6.250717423520395E-3
187 147 6.5709110752649475E-3
187 148 6.900701032616773E-3
187 149 7.239920950699946E-3
187 150 7.588370448358549E-3
187 151 7.94581439647004E-3
187 152 8.311982338172867E-3
187 153 8.68656804897441E-3
187 154 9.069229244061651E-3
187 155 9.459587439421591E-3
187 156 9.85722797259584E-3
187 157 1.0261700188049344E-2
187 158 1.0672517791232714E-2
187 159 1.108915937446758E-2
187 160 1.1511069116792E-2
187 161 1.1937657658875712E-2
187 162 1.2368303153060837E-2
187 163 1.2802352487510823E-2
187 164 1.3239122682367502E-2
187 165 1.3677902454731529E-2
187 166 1.4117953948204032E-2
187 167 1.4558514621665297E-2
187 168 1.4998799290928497E-2
187 169 1.5438002315900552E-2
187 170 1.5875299924916358E-2
187 171 1.6309852666994078E-2
187 172 1.6740807981894673E-2
187 173 1.716730287706519E-2
187 174 1.758846669980777E-2
187 175 1.8003423992350137E-2
187 176 1.8411297416903297E-2
187 177 1.88112107372812E-2
187 178 1.9202291843229094E-2
187 179 1.9583675803263735E-2
187 180 1.9954507931571497E-2
187 181 2.0313946854340386E-2
187 182 2.066116756081917E-2
187 183 2.099536442440067E-2
187 184 2.1315754179115923E-2
187 185 2.162157883709912E-2
187 186 2.1912108532838426E-2
187 187 2.218664428036152E-2
187 188 2.2444520629914665E-2
187 189 2.2685108211175965E-2
187 190 2.2907816150594153E-2
187 191 2.3112094351059077E-2
187 192 2.3297435622785422E-2
187 193 2.3463377655021794E-2
187 194 2.360950481897952E-2
187 195 2.3735449793204064E-2
187 196 2.3840895003482274E-2
187 197 2.3925573870286345E-2
187 198 2.398927185769533E-2
187 199 2.4031827318702674E-2
187 200 2.4053132132809074E-2
188 89 5.746833410330014E-5
188 90 6.41150117582164E-5
188 91 7.145099732471724E-5
188 92 7.953793557242816E-5
188 93 8.844184310713185E-5
188 94 9.8233293538506E-5
188 95 1.0898759679241744E-4
188 96 1.2078497065307907E-4
188 97 1.3371070247100844E-4
188 98 1.478552988261544E-4
188 99 1.6331462079362345E-4
188 100 1.801900023241393E-4
188 101 1.9858834912484408E-4
188 102 2.186222153105597E-4
188 103 2.404098549935424E-4
188 104 2.64075245893548E-4
188 105 2.8974808198221224E-4
188 106 3.175637321289198E-4
188 107 3.4766316169206583E-4
188 108 3.801928140025063E-4
188 109 4.153044487175457E-4
188 110 4.531549340864822E-4
188 111 4.939059902648149E-4
188 112 5.377238809458774E-4
188 113 6.362325529153434E-4
188 114 6.927140401052392E-4
188 115 7.534163485962413E-4
188 116 8.18577176075815E-4
188 117 8.884405477410381E-4
188 118 9.632563420175986E-4
188 119 1.0432797483906674E-3
188 120 1.1287706553519256E-3
188 121 1.2199929668150272E-3
188 122 1.3172138457389594E-3
188 123 1.4207028841244076E-3
188 124 1.5307311990110104E-3
188 125 1.6475704546016377E-3
188 126 1.7714918111713088E-3
188 127 1.9027648019803974E-3
188 128 2.0416561400011758E-3
188 129 2.1884284568798526E-3
188 130 2.3433389771889456E-3
188 131 2.5066381316725095E-3
188 132 2.678568113844415E-3
188 133 2.859361384962159E-3
188 134 3.049239133059855E-3
188 135 3.248409692378031E-3
188 136 3.457066930168443E-3
188 137 3.6753886084727187E-3
188 138 3.90353472906778E-3
188 139 4.141645870331928E-3
188 140 4.389841525306633E-3
188 141 4.648218450703797E-3
188 142 4.9168490370303745E-3
188 143 5.195779710365296E-3
188 144 5.4850293766222115E-3
188 145 5.784587919359858E-3
188 146 6.09441476235526E-3
188 147 6.414437508228838E-3
188 148 6.744550664401253E-3
188 149 7.084614467566209E-3
188 150 7.4344538176791914E-3
188 151 7.793857332187627E-3
188 152 8.16257653086238E-3
188 153 8.540325161134036E-3
188 154 8.926778673290878E-3
188 155 9.321573854260752E-3
188 156 9.724308627978876E-3
188 157 1.0134542029541456E-2
188 158 1.0551794359465407E-2
188 159 1.0975547523422675E-2
188 160 1.1405245561799476E-2
188 161 1.1840295372353319E-2
188 162 1.2280067628111005E-2
188 163 1.2723897891477199E-2
188 164 1.317108792431397E-2
188 165 1.362090719251612E-2
188 166 1.4072594562354237E-2
188 167 1.452536018459719E-2
188 168 1.4978387561167428E-2
188 169 1.5430835787836782E-2
188 170 1.588184196524607E-2
188 171 1.633052376933962E-2
188 172 1.6775982171154613E-2
188 173 1.7217304294804357E-2
188 174 1.7653566401453127E-2
188 175 1.8083836986106463E-2
188 176 1.850717997314248E-2
188 177 1.8922657995694148E-2
188 178 1.932933574326644E-2
188 179 1.9726283361341128E-2
188 180 2.0112579886191348E-2
188 181 2.048731669770221E-2
188 182 2.0849600972675474E-2
188 183 2.1198559120889637E-2
188 184 2.153334018609193E-2
188 185 2.1853119194118094E-2
188 186 2.2157100430468445E-2
188 187 2.2444520629914665E-2
188 188 2.271465206106904E-2
188 189 2.296680548931448E-2
188 190 2.3200333002066267E-2
188 191 2.3414630681011708E-2
188 192 2.360914110674699E-2
188 193 2.3783355682096483E-2
188 194 2.3936816761353102E-2
188 195 2.4069119573712643E-2
188 196 2.417991393028364E-2
188 197 2.426890570523028E-2
188 198 2.4335858082841395E-2
188 199 2.438059256360591E-2
188 200 2.4402989723706088E-2
189 90 5.746833410330014E-5
189 91 6.41150117582164E-5
189 92 7.145099732471724E-5
189 93 7.953793557242816E-5
189 94 8.844184310713185E-5
189 95 9.8233293538506E-5
189 96 1.0898759679241744E-4
189 97 1.2078497065307907E-4
189 98 1.3371070247100844E-4
189 99 1.478552988261544E-4
189 100 1.6331462079362345E-4
189 101 1.801900023241393E-4
189 102 1.9858834912484408E-4
189 103 2.186222153105597E-4
189 104 2.404098549935424E-4
189 105 2.64075245893548E-4
189 106 2.8974808198221224E-4
189 107 3.175637321289198E-4
189 108 3.4766316169206583E-4
189 109 3.801928140025063E-4
189 110 4.153044487175457E-4
189 111 4.531549340864822E-4
189 112 5.453594924323689E-4
189 113 5.951922150491775E-4
189 114 6.488940625060058E-4
189 115 7.066967033266563E-4
189 116 7.688392724104531E-4
189 117 8.355680218582296E-4
189 118 9.071359057071159E-4
189 119 9.838020957028842E-4
189 120 1.0658314255052406E-3
189 121 1.1534937610305166E-3
189 122 1.2470632949881026E-3
189 123 1.3468177640615744E-3
189 124 1.4530375876223925E-3
189 125 1.566004927342231E-3
189 126 1.686002667588058E-3
189 127 1.813313317040007E-3
189 128 1.9482178325633858E-3
189 129 2.0909943669898457E-3
189 130 2.2419169431152244E-3
189 131 2.4012540568987993E-3
189 132 2.569267213546096E-3
189 133 2.746209400869895E-3
189 134 2.932323505046135E-3
189 135 3.127840674607124E-3
189 136 3.3329786392374263E-3
189 137 3.5479399906514176E-3
189 138 3.7729104335287806E-3
189 139 4.008057015158015E-3
189 140 4.2535263430810875E-3
189 141 4.509442800637217E-3
189 142 4.775906770863166E-3
189 143 5.052992879713926E-3
189 144 5.340748270014338E-3
189 145 5.639190917931998E-3
189 146 5.9483080040683015E-3
189 147 6.268054351491565E-3
189 148 6.5983509431782736E-3
189 149 6.939083531380498E-3
189 150 7.290101351395287E-3
189 151 7.65121595207153E-3
189 152 8.022200155148795E-3
189 153 8.402787155178847E-3
189 154 8.792669771333136E-3
189 155 9.191499861848163E-3
189 156 9.598887911206368E-3
189 157 1.001440279939494E-2
189 158 1.0437571761731415E-2
189 159 1.0867880546797302E-2
189 160 1.1304773778983994E-2
189 161 1.1747655531034767E-2
189 162 1.219589011076968E-2
189 163 1.2648803064914154E-2
189 164 1.3105682401625816E-2
189 165 1.3565780031936682E-2
189 166 1.4028313428909277E-2
189 167 1.4492467501856367E-2
189 168 1.4957396681505475E-2
189 169 1.542222721051295E-2
189 170 1.5886059632260044E-2
189 171 1.6347971469406607E-2
189 172 1.6807020082249307E-2
189 173 1.726224569554255E-2
189 174 1.7712674581103052E-2
189 175 1.8157322382245468E-2
189 176 1.859519756489731E-2
189 177 1.902530497912772E-2
189 178 1.9446649513806178E-2
189 179 1.9858239826194057E-2
189 180 2.025909212747184E-2
189 181 2.0648234004526436E-2
189 182 2.1024708257772674E-2
189 183 2.1387576734366733E-2
189 184 2.173592413589181E-2
189 185 2.2068861779461255E-2
189 186 2.2385531291194333E-2
189 187 2.2685108211175965E-2
189 188 2.296680548931448E-2
189 189 2.322987685195934E-2
189 190 2.3473620019732036E-2
189 191 2.369737975775418E-2
189 192 2.3900550740322768E-2
189 193 2.4082580213078297E-2
189 194 2.4242970436829603E-2
189 195 2.4381280898432674E-2
189 196 2.449713027546065E-2
189 197 2.4590198142838693E-2
189 198 2.4660226411140858E-2
189 199 2.470702048784481E-2
189 200 2.4730450154502922E-2
190 91 5.746833410330014E-5
190 92 6.41150117582164E-5
190 93 7.145099732471724E-5
190 94 7.953793557242816E-5
190 95 8.844184310713185E-5
190 96 9.8233293538506E-5
190 97 1.0898759679241744E-4
190 98 1.2078497065307907E-4
190 99 1.3371070247100844E-4
190 100 1.478552988261544E-4
190 101 1.6331462079362345E-4
190 102 1.801900023241393E-4
190 103 1.9858834912484408E-4
190 104 2.186222153105597E-4
190 105 2.404098549935424E-4
190 106 2.64075245893548E-4
190 107 2.8974808198221224E-4
190 108 3.175637321289198E-4
190 109 3.4766316169206583E-4
190 110 3.801928140025063E-4
190 111 4.667579508850997E-4
190 112 5.106232681897823E-4
190 113 5.580210020230313E-4
190 114 6.091748782705946E-4
190 115 6.643169863202176E-4
190 116 7.236875491090709E-4
190 117 7.875346303765309E-4
190 118 8.561137755435152E-4
190 119 9.296875828216889E-4
190 120 1.0085252013814752E-3
190 121 1.0929017536783158E-3
190 122 1.1830976793531316E-3
190 123 1.2793979984860875E-3
190 124 1.382091492392795E-3
190 125 1.4914698006088128E-3
190 126 1.6078264332109293E-3
190 127 1.7314556981710464E-3
190 128 1.862651544028677E-3
190 129 2.0017063187987576E-3
190 130 2.1489094466996994E-3
190 131 2.3045460249888107E-3
190 132 2.4688953439242793E-3
190 133 2.6422293336300718E-3
190 134 2.824810942417164E-3
190 135 3.01689245190553E-3
190 136 3.2187137350900984E-3
190 137 3.430500464293488E-3
190 138 3.6524622767416534E-3
190 139 3.884790906277939E-3
190 140 4.1276582904886E-3
190 141 4.381214663240456E-3
190 142 4.645586643320769E-3
190 143 4.920875330512208E-3
190 144 5.207154421023713E-3
190 145 5.504468354722781E-3
190 146 5.812830507068303E-3
190 147 6.132221439017737E-3
190 148 6.4625872184708106E-3
190 149 6.803837827007352E-3
190 150 7.155845665772837E-3
190 151 7.5184441743564555E-3
190 152 7.891426576387998E-3
190 153 8.274544765347894E-3
190 154 8.667508343736132E-3
190 155 9.069983828278751E-3
190 156 9.481594033264226E-3
190 157 9.901917643396327E-3
190 158 1.0330488986726836E-2
190 159 1.0766798017292734E-2
190 160 1.1210290516032595E-2
190 161 1.1660368517400356E-2
190 162 1.2116390967837915E-2
190 163 1.2577674620918298E-2
190 164 1.3043495172536862E-2
190 165 1.3513088638018974E-2
190 166 1.3985652971438813E-2
190 167 1.4460349925817562E-2
190 168 1.4936307151201889E-2
190 169 1.5412620525928736E-2
190 170 1.5888356714673486E-2
190 171 1.6362555945169735E-2
190 172 1.6834234993794543E-2
190 173 1.7302390368548E-2
190 174 1.7766001676334887E-2
190 175 1.8224035159893903E-2
190 176 1.867544738823071E-2
190 177 1.9119189083009344E-2
190 178 1.9554209062055336E-2
190 179 1.997945827993689E-2
190 180 2.0393893944529146E-2
190 181 2.0796483687542305E-2
190 182 2.1186209766217698E-2
190 183 2.156207327277485E-2
190 184 2.192309832773606E-2
190 185 2.2268336232968047E-2
190 186 2.2596869560168775E-2
190 187 2.2907816150594153E-2
190 188 2.3200333002066267E-2
190 189 2.3473620019732036E-2
190 190 2.3726923607647256E-2
190 191 2.39595400790431E-2
190 192 2.4170818864085487E-2
190 193 2.4360165495055888E-2
190 194 2.4527044350157873E-2
190 195 2.467098113857761E-2
190 196 2.4791565110987727E-2
190 197 2.4888450981371227E-2
190 198 2.49613605478421E-2
190 199 2.5010084002037872E-2
190 200 2.5034480918641643E-2
191 92 5.746833410330014E-5
191 93 6.41150117582164E-5
191 94 7.145099732471724E-5
191 95 7.953793557242816E-5
191 96 8.844184310713185E-5
191 97 9.8233293538506E-5
191 98 1.0898759679241744E-4
191 99 1.2078497065307907E-4
191 100 1.3371070247100844E-4
191 101 1.478552988261544E-4
191 102 1.6331462079362345E-4
191 103 1.801900023241393E-4
191 104 1.9858834912484408E-4
191 105 2.186222153105597E-4
191 106 2.404098549935424E-4
191 107 2.64075245893548E-4
191 108 2.8974808198221224E-4
191 109 3.175637321289198E-4
191 110 3.991166638596198E-4
191 111 4.376611481058064E-4
191 112 4.7941946047576215E-4
191 113 5.246059314111994E-4
191 114 5.734439258372431E-4
191 115 6.261657240530092E-4
191 116 6.830123442862954E-4
191 117 7.442333027943565E-4
191 118 8.10086307491104E-4
191 119 8.808368812221062E-4
191 120 9.567579109947642E-4
191 121 1.0381291197040902E-3
191 122 1.1252364571763007E-3
191 123 1.2183714076843522E-3
191 124 1.3178302114725078E-3
191 125 1.4239129982614933E-3
191 126 1.5369228311918012E-3
191 127 1.6571646601995992E-3
191 128 1.7849441844064182E-3
191 129 1.9205666237385305E-3
191 130 2.064335400672344E-3
191 131 2.216550733725179E-3
191 132 2.3775081450727866E-3
191 133 2.5474968854715483E-3
191 134 2.726798280489467E-3
191 135 2.9156840029001384E-3
191 136 3.114414276961592E-3
191 137 3.3232360211803338E-3
191 138 3.542380937042647E-3
191 139 3.772063552072238E-3
191 140 4.012479226437308E-3
191 141 4.263802133172152E-3
191 142 4.526183222889498E-3
191 143 4.799748184630555E-3
191 144 5.08459541522065E-3
191 145 5.380794010160017E-3
191 146 5.688381789672217E-3
191 147 6.007363374047548E-3
191 148 6.337708322846815E-3
191 149 6.6793493528631495E-3
191 150 7.03218064996852E-3
191 151 7.396056290089305E-3
191 152 7.770788784555556E-3
191 153 8.156147764945283E-3
191 154 8.55185882229351E-3
191 155 8.957602515152195E-3
191 156 9.373013560468713E-3
191 157 9.79768022059612E-3
191 158 1.0231143898957646E-2
191 159 1.0672898955962129E-2
191 160 1.1122392755709096E-2
191 161 1.1579025952835744E-2
191 162 1.2042153027548973E-2
191 163 1.2511083075460627E-2
191 164 1.2985080857311454E-2
191 165 1.3463368112038993E-2
191 166 1.394512513492726E-2
191 167 1.4429492620784332E-2
191 168 1.4915573770240824E-2
191 169 1.5402436655362426E-2
191 170 1.5889116838838424E-2
191 171 1.6374620239061423E-2
191 172 1.6857926231468427E-2
191 173 1.733799097458688E-2
191 174 1.781375094733885E-2
191 175 1.828412668232013E-2
191 176 1.874802667800593E-2
191 177 1.9204351471158322E-2
191 178 1.9651997849140058E-2
191 179 2.0089863180390424E-2
191 180 2.051684984000736E-2
191 181 2.0931869706220404E-2
191 182 2.133384870254448E-2
191 183 2.172173135958702E-2
191 184 2.2094485369851084E-2
191 185 2.245110610844358E-2
191 186 2.2790621092367867E-2
191 187 2.3112094351059077E-2
191 188 2.3414630681011708E-2
191 189 2.369737975775418E-2
191 190 2.39595400790431E-2
191 191 2.4200362713978563E-2
191 192 2.441915483377622E-2
191 193 2.4615283001165063E-2
191 194 2.4788176196803895E-2
191 195 2.4937328562712927E-2
191 196 2.506230184448819E-2
191 197 2.5162727515991138E-2
191 198 2.523830857226824E-2
191 199 2.5288820978638937E-2
191 200 2.5314114766176593E-2
192 93 5.746833410330014E-5
192 94 6.41150117582164E-5
192 95 7.145099732471724E-5
192 96 7.953793557242816E-5
192 97 8.844184310713185E-5
192 98 9.8233293538506E-5
192 99 1.0898759679241744E-4
192 100 1.2078497065307907E-4
192 101 1.3371070247100844E-4
192 102 1.478552988261544E-4
192 103 1.6331462079362345E-4
192 104 1.801900023241393E-4
192 105 1.9858834912484408E-4
192 106 2.186222153105597E-4
192 107 2.404098549935424E-4
192 108 2.64075245893548E-4
192 109 3.412015841497662E-4
192 110 3.7503206623221993E-4
192 111 4.1177817345028225E-4
192 112 4.5164381132722356E-4
192 113 4.948423842899739E-4
192 114 5.41596777193614E-4
192 115 5.921392838033209E-4
192 116 6.467114777382948E-4
192 117 7.055640214008685E-4
192 118 7.689564084729475E-4
192 119 8.371566356641793E-4
192 120 9.104407995447212E-4
192 121 9.890926144927492E-4
192 122 1.0734028480353108E-3
192 123 1.1636686701627212E-3
192 124 1.2601929135530505E-3
192 125 1.3632832420554962E-3
192 126 1.4732512252501632E-3
192 127 1.590411317427173E-3
192 128 1.7150797399094527E-3
192 129 1.8475732662800047E-3
192 130 1.9882079107640103E-3
192 131 2.13729752075632E-3
192 132 2.2951522752724485E-3
192 133 2.462077091932182E-3
192 134 2.638369945954523E-3
192 135 2.824320105545529E-3
192 136 3.0202062889903743E-3
192 137 3.2262947497107503E-3
192 138 3.442837296510919E-3
192 139 3.6700692572020155E-3
192 140 3.90820739475579E-3
192 141 4.1574477860863495E-3
192 142 4.417963674481939E-3
192 143 4.689903307597941E-3
192 144 4.973387773766861E-3
192 145 5.268508850170086E-3
192 146 5.5753268771392625E-3
192 147 5.893868673501295E-3
192 148 6.224125508439888E-3
192 149 6.566051145807984E-3
192 150 6.919559977179617E-3
192 151 7.28452526016762E-3
192 152 7.66077747864659E-3
192 153 8.048102841501172E-3
192 154 8.446241936361346E-3
192 155 8.854888554483471E-3
192 156 9.27368870248409E-3
192 157 9.702239816030031E-3
192 158 1.0140090189831414E-2
192 159 1.0586738637374008E-2
192 160 1.1041634392765277E-2
192 161 1.1504177265857713E-2
192 162 1.1973718060458452E-2
192 163 1.2449559263942131E-2
192 164 1.2930956014962757E-2
192 165 1.341711735421974E-2
192 166 1.3907207761384514E-2
192 167 1.4400348979350521E-2
192 168 1.4895622124944868E-2
192 169 1.5392070083150512E-2
192 170 1.588870017975036E-2
192 171 1.638448712513712E-2
192 172 1.687837621985376E-2
192 173 1.7369286810259274E-2
192 174 1.7856115980572122E-2
192 175 1.833774246545088E-2
192 176 1.8813030765247745E-2
192 177 1.9280835444136647E-2
192 178 1.974000558949341E-2
192 179 2.018938940921052E-2
192 180 2.0627838942081683E-2
192 181 2.105421485500953E-2
192 182 2.146739129958973E-2
192 183 2.1866260799620715E-2
192 184 2.224973914029454E-2
192 185 2.2616770229250904E-2
192 186 2.296633089933388E-2
192 187 2.3297435622785422E-2
192 188 2.360914110674699E-2
192 189 2.3900550740322768E-2
192 190 2.4170818864085487E-2
192 191 2.441915483377622E-2
192 192 2.4644826851058135E-2
192 193 2.4847165535524227E-2
192 194 2.5025567213720117E-2
192 195 2.5179496902714475E-2
192 196 2.5308490967716334E-2
192 197 2.54121594353852E-2
192 198 2.5490187946787972E-2
192 199 2.5542339336406962E-2
192 200 2.5568454826173884E-2
193 94 5.746833410330014E-5
193 95 6.41150117582164E-5
193 96 7.145099732471724E-5
193 97 7.953793557242816E-5
193 98 8.844184310713185E-5
193 99 9.8233293538506E-5
193 100 1.0898759679241744E-4
193 101 1.2078497065307907E-4
193 102 1.3371070247100844E-4
193 103 1.478552988261544E-4
193 104 1.6331462079362345E-4
193 105 1.801900023241393E-4
193 106 1.9858834912484408E-4
193 107 2.186222153105597E-4
193 108 2.918633571610964E-4
193 109 3.215435799968481E-4
193 110 3.5386309374042866E-4
193 111 3.8901472945363706E-4
193 112 4.27201097264494E-4
193 113 4.686346571096382E-4
193 114 5.135377422560518E-4
193 115 5.621425308788996E-4
193 116 6.14690960917894E-4
193 117 6.714345834168858E-4
193 118 7.326343495739438E-4
193 119 7.985603267955625E-4
193 120 8.694913391621643E-4
193 121 9.457145278759418E-4
193 122 1.0275248274791695E-3
193 123 1.1152243539040091E-3
193 124 1.2091217007457094E-3
193 125 1.3095311405417205E-3
193 126 1.416771728290868E-3
193 127 1.5311663049600167E-3
193 128 1.6530403993007595E-3
193 129 1.7827210269349327E-3
193 130 1.9205353863639804E-3
193 131 2.0668094523112798E-3
193 132 2.221866467615715E-3
193 133 2.386025335755423E-3
193 134 2.5595989169882438E-3
193 135 2.7428922320447587E-3
193 136 2.9362005782946872E-3
193 137 3.139807564320959E-3
193 138 3.3539830698701197E-3
193 139 3.5789811391944704E-3
193 140 3.815037816851057E-3
193 141 4.062368936065576E-3
193 142 4.321167870794792E-3
193 143 4.591603263618243E-3
193 144 4.8738167425473765E-3
193 145 5.167920640746106E-3
193 146 5.473995733999164E-3
193 147 5.792089011531602E-3
193 148 6.122211496462463E-3
193 149 6.464336132756354E-3
193 150 6.818395756007084E-3
193 151 7.184281165736902E-3
193 152 7.561839317113236E-3
193 153 7.950871650062653E-3
193 154 8.351132573691132E-3
193 155 8.762328123693243E-3
193 156 9.18411481004479E-3
193 157 9.616098671719383E-3
193 158 1.0057834554446393E-2
193 159 1.0508825626634563E-2
193 160 1.0968523147522625E-2
193 161 1.1436326500387986E-2
193 162 1.191158350225087E-2
193 163 1.2393590999960583E-2
193 164 1.2881595760850417E-2
193 165 1.3374795664308277E-2
193 166 1.3872341198643003E-2
193 167 1.4373337265545051E-2
193 168 1.4876845292260209E-2
193 169 1.5381885649332804E-2
193 170 1.5887440369449203E-2
193 171 1.63924561605427E-2
193 172 1.6895847703927967E-2
193 173 1.7396501225839002E-2
193 174 1.7893278328371308E-2
193 175 1.838502006349974E-2
193 176 1.8870551231581593E-2
193 177 1.9348684883582833E-2
193 178 1.9818227004207115E-2
193 179 2.0277981351184672E-2
193 180 2.0726754424212696E-2
193 181 2.116336053545101E-2
193 182 2.158662695208577E-2
193 183 2.1995399080297247E-2
193 184 2.2388545659020535E-2
193 185 2.2764963931184844E-2
193 186 2.3123584759668463E-2
193 187 2.3463377655021794E-2
193 188 2.3783355682096483E-2
193 189 2.4082580213078297E-2
193 190 2.4360165495055888E-2
193 191 2.4615283001165063E-2
193 192 2.4847165535524227E-2
193 193 2.505511106361319E-2
193 194 2.5238486241434804E-2
193 195 2.5396729618723524E-2
193 196 2.5529354493611486E-2
193 197 2.563595139851317E-2
193 198 2.571619019952392E-2
193 199 2.576982179432292E-2
193 200 2.5796679396404253E-2
194 95 5.746833410330014E-5
194 96 6.41150117582164E-5
194 97 7.145099732471724E-5
194 98 7.953793557242816E-5
194 99 8.844184310713185E-5
194 100 9.8233293538506E-5
194 101 1.0898759679241744E-4
194 102 1.2078497065307907E-4
194 103 1.3371070247100844E-4
194 104 1.478552988261544E-4
194 105 1.6331462079362345E-4
194 106 1.801900023241393E-4
194 107 2.5004185129239807E-4
194 108 2.7609054941385983E-4
194 109 3.045248667517588E-4
194 110 3.3552624321826524E-4
194 111 3.692860175546404E-4
194 112 4.060055752360517E-4
194 113 4.458964552305718E-4
194 114 4.891804107949238E-4
194 115 5.360894193706248E-4
194 116 5.868656365574906E-4
194 117 6.417612890909693E-4
194 118 7.010385017395008E-4
194 119 7.649690530719287E-4
194 120 8.338340551267832E-4
194 121 9.079235521485846E-4
194 122 9.875360337446401E-4
194 123 1.072977858062158E-3
194 124 1.164562580892679E-3
194 125 1.2626101869810812E-3
194 126 1.367446220251574E-3
194 127 1.4794008101644545E-3
194 128 1.5988075919854967E-3
194 129 1.7260025193847352E-3
194 130 1.8613225684822017E-3
194 131 2.0051043332233757E-3
194 132 2.1576825127942543E-3
194 133 2.319388292671777E-3
194 134 2.4905476218456584E-3
194 135 2.671479389737402E-3
194 136 2.8624935073753434E-3
194 137 3.0638888984540567E-3
194 138 3.2759514070045104E-3
194 139 3.498951629519161E-3
194 140 3.733142680504257E-3
194 141 3.9787579015595E-3
194 142 4.236008525201881E-3
194 143 4.505081305744228E-3
194 144 4.786136130597489E-3
194 145 5.0793036263764545E-3
194 146 5.384682775138445E-3
194 147 5.702338556960332E-3
194 148 6.032299635848068E-3
194 149 6.374556106661563E-3
194 150 6.729057321313639E-3
194 151 7.0957098129526995E-3
194 152 7.474375337152965E-3
194 153 7.864869049303195E-3
194 154 8.266957837394548E-3
194 155 8.68035882925245E-3
194 156 9.104738092928534E-3
194 157 9.539709548461152E-3
194 158 9.984834108522533E-3
194 159 1.043961906459501E-2
194 160 1.0903517734257271E-2
194 161 1.1375929383915781E-2
194 162 1.1856199439890117E-2
194 163 1.2343619999159155E-2
194 164 1.2837430649306104E-2
194 165 1.3336819605273678E-2
194 166 1.3840925168468812E-2
194 167 1.434883751155269E-2
194 168 1.4859600789932986E-2
194 169 1.5372215578558902E-2
194 170 1.5885641630125145E-2
194 171 1.6398800948240054E-2
194 172 1.691058116652794E-2
194 173 1.7419839222039997E-2
194 174 1.7925405308766615E-2
194 175 1.842608709450202E-2
194 176 1.8920674181834827E-2
194 177 1.940794279165206E-2
194 178 1.988666064527409E-2
194 179 2.0355592019209286E-2
194 180 2.0813502944553995E-2
194 181 2.125916652128893E-2
194 182 2.1691368316158526E-2
194 183 2.210891181148559E-2
194 184 2.251062387118755E-2
194 185 2.2895360189438094E-2
194 186 2.3262010686872756E-2
194 187 2.360950481897952E-2
194 188 2.3936816761353102E-2
194 189 2.4242970436829603E-2
194 190 2.4527044350157873E-2
194 191 2.4788176196803895E-2
194 192 2.5025567213720117E-2
194 193 2.5238486241434804E-2
194 194 2.54262734686166E-2
194 195 2.5588343832331814E-2
194 196 2.572419004952036E-2
194 197 2.5833385257750207E-2
194 198 2.5915585246048117E-2
194 199 2.5970530259521216E-2
194 200 2.599804636455329E-2
195 96 5.746833410330014E-5
195 97 6.41150117582164E-5
195 98 7.145099732471724E-5
195 99 7.953793557242816E-5
195 100 8.844184310713185E-5
195 101 9.8233293538506E-5
195 102 1.0898759679241744E-4
195 103 1.2078497065307907E-4
195 104 1.3371070247100844E-4
195 105 1.478552988261544E-4
195 106 2.1476812296117746E-4
195 107 2.3765833642743945E-4
195 108 2.627033608830605E-4
195 109 2.900732126352769E-4
195 110 3.1994779056597055E-4
195 111 3.5251708900067987E-4
195 112 3.879813755207182E-4
195 113 4.2655132892133727E-4
195 114 4.6844813234514493E-4
195 115 5.139035164735148E-4
195 116 5.631597475437002E-4
195 117 6.164695548801056E-4
195 118 6.740959925889542E-4
195 119 7.363122300707214E-4
195 120 8.034012660583491E-4
195 121 8.756555609954815E-4
195 122 9.53376582731573E-4
195 123 1.03687426073331E-3
195 124 1.1264663442975297E-3
195 125 1.2224776606025326E-3
195 126 1.3252392688546677E-3
195 127 1.435087507277054E-3
195 128 1.5523629302484302E-3
195 129 1.677409133532766E-3
195 130 1.8105714662441305E-3
195 131 1.9521956289651763E-3
195 132 2.1026261582794375E-3
195 133 2.2622047988844897E-3
195 134 2.4312687654209353E-3
195 135 2.6101488971762435E-3
195 136 2.7991677098967715E-3
195 137 2.998637350058895E-3
195 138 3.208857458103098E-3
195 139 3.4301129483142972E-3
195 140 3.6626717142276034E-3
195 141 3.906782269640563E-3
195 142 4.162671336508936E-3
195 143 4.430541392181127E-3
195 144 4.710568189573306E-3
195 145 5.002898264989828E-3
195 146 5.307646449337623E-3
195 147 5.6248933994549125E-3
195 148 5.954683167159433E-3
195 149 6.297020824405353E-3
195 150 6.651870163607179E-3
195 151 7.019151492729702E-3
195 152 7.39873954514266E-3
195 153 7.790461524484861E-3
195 154 8.194095304864514E-3
195 155 8.60936780662984E-3
195 156 9.035953567668812E-3
195 157 9.473473529731682E-3
195 158 9.92149405860977E-3
195 159 1.037952621614524E-2
195 160 1.0847025300988168E-2
195 161 1.1323390673759402E-2
195 162 1.1807965880824067E-2
195 163 1.2300039089235638E-2
195 164 1.2798843843582418E-2
195 165 1.3303560153466641E-2
195 166 1.3813315918183366E-2
195 167 1.4327188692856749E-2
195 168 1.4844207797851384E-2
195 169 1.5363356770725325E-2
195 170 1.588357615734975E-2
195 171 1.6403766636110387E-2
195 172 1.6922792466352084E-2
195 173 1.7439485249455558E-2
195 174 1.795264798817071E-2
195 175 1.8461059427101703E-2
195 176 1.8963478654572485E-2
195 177 1.9458649943526085E-2
195 178 1.9945307806654232E-2
195 179 2.0422182238643418E-2
195 180 2.0888004116285525E-2
195 181 2.134151072526151E-2
195 182 2.178145138068875E-2
195 183 2.220659310704883E-2
195 184 2.2615726341903144E-2
195 185 2.3007670626875462E-2
195 186 2.338128024874915E-2
195 187 2.3735449793204064E-2
195 188 2.4069119573712643E-2
195 189 2.4381280898432674E-2
195 190 2.467098113857761E-2
195 191 2.4937328562712927E-2
195 192 2.5179496902714475E-2
195 193 2.5396729618723524E-2
195 194 2.5588343832331814E-2
195 195 2.5753733899413433E-2
195 196 2.5892374596470535E-2
195 197 2.6003823897055307E-2
195 198 2.60877253177475E-2
195 199 2.6143809816278486E-2
195 200 2.617189722767025E-2
196 97 5.746833410330014E-5
196 98 6.41150117582164E-5
196 99 7.145099732471724E-5
196 100 7.953793557242816E-5
196 101 8.844184310713185E-5
196 102 9.8233293538506E-5
196 103 1.0898759679241744E-4
196 104 1.2078497065307907E-4
196 105 1.8516420463856245E-4
196 106 2.0532363292945455E-4
196 107 2.2742963255183984E-4
196 108 2.5164099964885655E-4
196 109 2.781262846972722E-4
196 110 3.0706405841769154E-4
196 111 3.386431485320484E-4
196 112 3.7306284268596545E-4
196 113 4.1053305263529134E-4
196 114 4.5127443459992825E-4
196 115 4.955184605182203E-4
196 116 5.435074347961298E-4
196 117 5.95494451041685E-4
196 118 6.517432832113263E-4
196 119 7.125282055753746E-4
196 120 7.781337359394197E-4
196 121 8.488542966413374E-4
196 122 9.249937879841513E-4
196 123 1.0068650689669448E-3
196 124 1.0947893404431636E-3
196 125 1.1890954261711162E-3
196 126 1.2901189476280126E-3
196 127 1.3982013889386436E-3
196 128 1.513689048824323E-3
196 129 1.6369318771078255E-3
196 130 1.7682821940157405E-3
196 131 1.9080932913001923E-3
196 132 2.056717915055412E-3
196 133 2.2145066310285963E-3
196 134 2.3818060742150744E-3
196 135 2.5589570855803047E-3
196 136 2.746292739859795E-3
196 137 2.9441362695458127E-3
196 138 3.1527988913686816E-3
196 139 3.3725775428115404E-3
196 140 3.6037525374506022E-3
196 141 3.8465851491770397E-3
196 142 4.101315136619807E-3
196 143 4.368158220338014E-3
196 144 4.647303526573466E-3
196 145 4.938911012534475E-3
196 146 5.243108889306295E-3
196 147 5.559991059536723E-3
196 148 5.889614588012198E-3
196 149 6.231997224105048E-3
196 150 6.5871149958214165E-3
196 151 6.954899895797138E-3
196 152 7.335237680061599E-3
196 153 7.727965800703979E-3
196 154 8.132871493720153E-3
196 155 8.549690043280878E-3
196 156 8.97810324343299E-3
196 157 9.41773807781743E-3
196 158 9.868165637354393E-3
196 159 1.0328900295002927E-2
196 160 1.0799399155647371E-2
196 161 1.1279061797896454E-2
196 162 1.1767230323104923E-2
196 163 1.226318972524733E-2
196 164 1.2766168593396174E-2
196 165 1.3275340156492106E-2
196 166 1.3789823677854576E-2
196 167 1.4308686204482059E-2
196 168 1.4830944673649088E-2
196 169 1.5355568376642233E-2
196 170 1.5881481776710567E-2
196 171 1.640756767546178E-2
196 172 1.6932670719038E-2
196 173 1.7455601232482798E-2
196 174 1.7975139367790646E-2
196 175 1.8490039548241178E-2
196 176 1.8999035188792965E-2
196 177 1.950084366957466E-2
196 178 1.999417153689541E-2
196 179 2.047771990373047E-2
196 180 2.0950190019350938E-2
196 181 2.141028897568534E-2
196 182 2.1856735516151818E-2
196 183 2.228826591110631E-2
196 184 2.270363986273674E-2
196 185 2.3101646401214204E-2
196 186 2.3481109733206773E-2
196 187 2.3840895003482274E-2
196 188 2.417991393028364E-2
196 189 2.449713027546065E-2
196 190 2.4791565110987727E-2
196 191 2.506230184448819E-2
196 192 2.5308490967716334E-2
196 193 2.5529354493611486E-2
196 194 2.572419004952036E-2
196 195 2.5892374596470535E-2
196 196 2.6033367746948383E-2
196 197 2.6146714656467833E-2
196 198 2.6232048467285676E-2
196 199 2.6289092285896536E-2
196 200 2.631766067939545E-2
197 98 5.746833410330014E-5
197 99 6.41150117582164E-5
197 100 7.145099732471724E-5
197 101 7.953793557242816E-5
197 102 8.844184310713185E-5
197 103 9.8233293538506E-5
197 104 1.6044109895997145E-4
197 105 1.7825330475637922E-4
197 106 1.9782571422922483E-4
197 107 2.1930629615087163E-4
197 108 2.428525563660516E-4
197 109 2.686318454312712E-4
197 110 2.9682164266335006E-4
197 111 3.276098121029771E-4
197 112 3.611948256466215E-4
197 113 3.9778594836455643E-4
197 114 4.3760338080836667E-4
197 115 4.8087835292254325E-4
197 116 5.278531640162051E-4
197 117 5.787811631273504E-4
197 118 6.339266640281054E-4
197 119 6.935647890800247E-4
197 120 7.579812361583628E-4
197 121 8.274719629280897E-4
197 122 9.023427828767092E-4
197 123 9.82908867694005E-4
197 124 1.0694941508405313E-3
197 125 1.1624306274686436E-3
197 126 1.262057546255092E-3
197 127 1.3687204891752818E-3
197 128 1.4827703357980387E-3
197 129 1.6045621093072975E-3
197 130 1.7344537021638873E-3
197 131 1.8728044801059759E-3
197 132 2.019973764049351E-3
197 133 2.176319190385997E-3
197 134 2.342194951187965E-3
197 135 2.5179499168986263E-3
197 136 2.703925645229346E-3
197 137 2.9004542811695818E-3
197 138 3.1078563542542553E-3
197 139 3.3264384805049866E-3
197 140 3.5564909777609766E-3
197 141 3.7982854044298475E-3
197 142 4.052072033006117E-3
197 143 4.318077271012147E-3
197 144 4.596501043299182E-3
197 145 4.887514150889933E-3
197 146 5.191255622733575E-3
197 147 5.50783007786358E-3
197 148 5.837305116482339E-3
197 149 6.179708759428261E-3
197 150 6.535026956295008E-3
197 151 6.903201183153313E-3
197 152 7.284126151358458E-3
197 153 7.6776476492968915E-3
197 154 8.08356053912034E-3
197 155 8.501606930523303E-3
197 156 8.931474553429495E-3
197 157 9.372795351055698E-3
197 158 9.825144314210586E-3
197 159 1.0288038576856524E-2
197 160 1.0760936791911212E-2
197 161 1.1243238804992893E-2
197 162 1.1734285642319715E-2
197 163 1.223335982726546E-2
197 164 1.2739686038157018E-2
197 165 1.325243211778411E-2
197 166 1.3770710442790799E-2
197 167 1.4293579658646915E-2
197 168 1.4820046783272908E-2
197 169 1.534906967963433E-2
197 170 1.5879559894754265E-2
197 171 1.641038585963818E-2
197 172 1.6940376441592495E-2
197 173 1.7468324837373088E-2
197 174 1.7992992792553265E-2
197 175 1.8513115129481904E-2
197 176 1.9027404563243352E-2
197 177 1.9534556782162288E-2
197 178 2.0033255766650895E-2
197 179 2.052217931760293E-2
197 180 2.100000476313029E-2
197 181 2.1465414810241237E-2
197 182 2.1917103506102896E-2
197 183 2.2353782271839727E-2
197 184 2.2774185970417367E-2
197 185 2.3177078969068052E-2
197 186 2.3561261155947325E-2
197 187 2.3925573870286345E-2
197 188 2.426890570523028E-2
197 189 2.4590198142838693E-2
197 190 2.4888450981371227E-2
197 191 2.5162727515991138E-2
197 192 2.54121594353852E-2
197 193 2.563595139851317E-2
197 194 2.5833385257750207E-2
197 195 2.6003823897055307E-2
197 196 2.6146714656467833E-2
197 197 2.6261592317178752E-2
197 198 2.6348081624616868E-2
197 199 2.640589933040264E-2
197 200 2.6434855737621735E-2
198 99 5.746833410330014E-5
198 100 6.41150117582164E-5
198 101 7.145099732471724E-5
198 102 7.953793557242816E-5
198 103 1.3989534527468586E-4
198 104 1.5570162764180613E-4
198 105 1.7310260855063383E-4
198 106 1.922359679777963E-4
198 107 2.1324863804343658E-4
198 108 2.3629714193328625E-4
198 109 2.615479143321294E-4
198 110 2.8917759911655677E-4
198 111 3.193733197779232E-4
198 112 3.523329177815681E-4
198 113 3.8826515381969683E-4
198 114 4.2738986668717144E-4
198 115 4.6993808430635154E-4
198 116 5.161520812537639E-4
198 117 5.662853770026255E-4
198 118 6.206026689960487E-4
198 119 6.793796946110937E-4
198 120 7.429030160686944E-4
198 121 8.114697223937347E-4
198 122 8.853870426379432E-4
198 123 9.649718647502957E-4
198 124 1.0505501547194848E-3
198 125 1.1424562709245072E-3
198 126 1.2410321690159128E-3
198 127 1.3466264931144873E-3
198 128 1.4595935496582563E-3
198 129 1.5802921608541005E-3
198 130 1.7090843953975331E-3
198 131 1.846334174913046E-3
198 132 1.9924057554365606E-3
198 133 2.1476620842087197E-3
198 134 2.3124630330695482E-3
198 135 2.4871635108370065E-3
198 136 2.6721114582084126E-3
198 137 2.8676457299377884E-3
198 138 3.0740938703058864E-3
198 139 3.2917697892036915E-3
198 140 3.520971347484232E-3
198 141 3.761977861590054E-3
198 142 4.015047538822187E-3
198 143 4.280414855967286E-3
198 144 4.558287895328614E-3
198 145 4.8488456534982825E-3
198 146 5.152235339447218E-3
198 147 5.468569679679191E-3
198 148 5.797924249279643E-3
198 149 6.140334848672298E-3
198 150 6.495794946760156E-3
198 151 6.8642532118563275E-3
198 152 7.245611152388606E-3
198 153 7.639720889774821E-3
198 154 8.04638308610004E-3
198 155 8.465345049268958E-3
198 156 8.89629903814601E-3
198 157 9.33888078982265E-3
198 158 9.792668290557829E-3
198 159 1.0257180811118871E-2
198 160 1.0731878226202043E-2
198 161 1.1216160636334474E-2
198 162 1.170936830915343E-2
198 163 1.2210781955229403E-2
198 164 1.2719623351653395E-2
198 165 1.323505632445571E-2
198 166 1.3756188098576448E-2
198 167 1.4282071021581648E-2
198 168 1.4811704664632157E-2
198 169 1.5344038301384939E-2
198 170 1.5877973762561944E-2
198 171 1.641236866088498E-2
198 172 1.6946039977973268E-2
198 173 1.7477768001662963E-2
198 174 1.800630059906435E-2
198 175 1.8530357807555436E-2
198 176 1.904863672285123E-2
198 177 1.9559816660319588E-2
198 178 2.0062564562869808E-2
198 179 2.0555540626050715E-2
198 180 2.103740410849323E-2
198 181 2.1506819293547846E-2
198 182 2.1962461565929153E-2
198 183 2.240302356541396E-2
198 184 2.2827221378171038E-2
198 185 2.323380072515049E-2
198 186 2.3621543106147624E-2
198 187 2.398927185769533E-2
198 188 2.4335858082841395E-2
198 189 2.4660226411140858E-2
198 190 2.49613605478421E-2
198 191 2.523830857226824E-2
198 192 2.5490187946787972E-2
198 193 2.571619019952392E-2
198 194 2.5915585246048117E-2
198 195 2.60877253177475E-2
198 196 2.6232048467285676E-2
198 197 2.6348081624616868E-2
198 198 2.6435443180295712E-2
198 199 2.6493845076342067E-2
198 200 2.6523094388628925E-2
199 100 5.746833410330014E-5
199 101 6.41150117582164E-5
199 102 1.2290449949227124E-4
199 103 1.370062696757283E-4
199 104 1.5255685486534825E-4
199 105 1.6968429086322323E-4
199 106 1.885255323648456E-4
199 107 2.0922681376021093E-4
199 108 2.3194399600951442E-4
199 109 2.5684289561857184E-4
199 110 2.840995914467025E-4
199 111 3.1390070479514774E-4
199 112 3.464436479509985E-4
199 113 3.819368361041831E-4
199 114 4.205998573176817E-4
199 115 4.626635950183921E-4
199 116 5.08370297292772E-4
199 117 5.579735871224622E-4
199 118 6.117384075856138E-4
199 119 6.699408959847185E-4
199 120 7.328681808464655E-4
199 121 8.008180957785481E-4
199 122 8.740988042673212E-4
199 123 9.530283296634232E-4
199 124 1.0379339848342716E-3
199 125 1.129151696266754E-3
199 126 1.2270252177839023E-3
199 127 1.3319052294988873E-3
199 128 1.444148318170549E-3
199 129 1.5641158357484917E-3
199 130 1.6921726336032593E-3
199 131 1.828685670728118E-3
199 132 1.974022495072415E-3
199 133 2.1285495981201124E-3
199 134 2.2926306438577613E-3
199 135 2.466624574379335E-3
199 136 2.6508835955454495E-3
199 137 2.845751047344718E-3
199 138 3.0515591648872247E-3
199 139 3.2686267372851316E-3
199 140 3.497256673032769E-3
199 141 3.7377334818765712E-3
199 142 3.990320684551223E-3
199 143 4.255258163138653E-3
199 144 4.532759466166386E-3
199 145 4.823009083885899E-3
199 146 5.126159710443898E-3
199 147 5.4423295108632815E-3
199 148 5.77159941186915E-3
199 149 6.11401043661154E-3
199 150 6.469561104233618E-3
199 151 6.838204915995448E-3
199 152 7.21984795027269E-3
199 153 7.614346589191754E-3
199 154 8.021505399923436E-3
199 155 8.441075193722749E-3
199 156 8.872751285662114E-3
199 157 9.316171977648141E-3
199 158 9.770917286730936E-3
199 159 1.023650793990335E-2
199 160 1.0712404655542134E-2
199 161 1.1198007730362579E-2
199 162 1.1692656949244162E-2
199 163 1.2195631833541365E-2
199 164 1.2706152241528096E-2
199 165 1.3223379332445735E-2
199 166 1.374641690324656E-2
199 167 1.427431310456169E-2
199 168 1.4806062539693679E-2
199 169 1.5340608747559771E-2
199 170 1.5876847067515652E-2
199 171 1.6413627880897032E-2
199 172 1.6949760220955443E-2
199 173 1.748401573966453E-2
199 174 1.8015133016665137E-2
199 175 1.8541822192433673E-2
199 176 1.9062769904631675E-2
199 177 1.9576644503558747E-2
199 178 2.0082101519719404E-2
199 179 2.057778935376011E-2
199 180 2.1062355156468274E-2
199 181 2.1534450864181147E-2
199 182 2.1992739352858906E-2
199 183 2.243590067226046E-2
199 184 2.286263832014708E-2
199 185 2.3271685515250613E-2
199 186 2.3661811426898497E-2
199 187 2.4031827318702674E-2
199 188 2.438059256360591E-2
199 189 2.470702048784481E-2
199 190 2.5010084002037872E-2
199 191 2.5288820978638937E-2
199 192 2.5542339336406962E-2
199 193 2.576982179432292E-2
199 194 2.5970530259521216E-2
199 195 2.6143809816278486E-2
199 196 2.6289092285896536E-2
199 197 2.640589933040264E-2
199 198 2.6493845076342067E-2
199 199 2.6552638238521997E-2
199 200 2.6582083727349257E-2
200 101 1.0892183627085414E-4
200 102 1.2158334586151654E-4
200 103 1.3556600908293362E-4
200 104 1.509889328971454E-4
200 105 1.6797977867956003E-4
200 106 1.8667513664563786E-4
200 107 2.0722089033092345E-4
200 108 2.297725674454965E-4
200 109 2.544956731240875E-4
200 110 2.815660012971628E-4
200 111 3.111699196197778E-4
200 112 3.4350462311776275E-4
200 113 3.787783514489834E-4
200 114 4.172105644354038E-4
200 115 4.590320703041021E-4
200 116 5.044851008870904E-4
200 117 5.538233278757602E-4
200 118 6.07311814111132E-4
200 119 6.652268938209856E-4
200 120 7.278559756945721E-4
200 121 7.95497262720052E-4
200 122 8.684593828040279E-4
200 123 9.470609243512971E-4
200 124 1.0316298712106922E-3
200 125 1.1225029316936667E-3
200 126 1.2200247567497285E-3
200 127 1.324547042839964E-3
200 128 1.4364275155891227E-3
200 129 1.5560287909197076E-3
200 130 1.6837171110790766E-3
200 131 1.8198609537626283E-3
200 132 1.9648295134116695E-3
200 133 2.1189910547214563E-3
200 134 2.282711139429899E-3
200 135 2.4563507285662043E-3
200 136 2.64026416351564E-3
200 137 2.8347970304948853E-3
200 138 3.0402839143239633E-3
200 139 3.2570460487163022E-3
200 140 3.4853888716774714E-3
200 141 3.725599495993938E-3
200 142 3.977944106193038E-3
200 143 4.242665294750323E-3
200 144 4.519979351695938E-3
200 145 4.810073523112001E-3
200 146 5.113103255301962E-3
200 147 5.429189442633858E-3
200 148 5.758415698195177E-3
200 149 6.100825667430469E-3
200 150 6.456420405846832E-3
200 151 6.8251558426499805E-3
200 152 7.206940352798597E-3
200 153 7.601632460421307E-3
200 154 8.009038696814463E-3
200 155 8.428911636316594E-3
200 156 8.86094813322488E-3
200 157 9.3047877825704E-3
200 158 9.760011626993663E-3
200 159 1.02261411311542E-2
200 160 1.0702637444063887E-2
200 161 1.1188900968451822E-2
200 162 1.1684271254750515E-2
200 163 1.2188027235542855E-2
200 164 1.2699387814333704E-2
200 165 1.3217512820318945E-2
200 166 1.3741504338430976E-2
200 167 1.427040842135859E-2
200 168 1.4803217187489306E-2
200 169 1.5338871305824394E-2
200 170 1.5876262865894858E-2
200 171 1.641423862758612E-2
200 172 1.695160364258829E-2
200 173 1.7487125235957617E-2
200 174 1.8019537333033853E-2
200 175 1.8547545113741373E-2
200 176 1.906982997314119E-2
200 177 1.9585054764031495E-2
200 178 2.009186929444905E-2
200 179 2.0588916050136963E-2
200 180 2.1074836109448023E-2
200 181 2.154827521577933E-2
200 182 2.2007889970512454E-2
200 183 2.2452354107592026E-2
200 184 2.2880364809340033E-2
200 185 2.3290649021895087E-2
200 186 2.3681969727805664E-2
200 187 2.4053132132809074E-2
200 188 2.4402989723706088E-2
200 189 2.4730450154502922E-2
200 190 2.5034480918641643E-2
200 191 2.5314114766176593E-2
200 192 2.5568454826173884E-2
200 193 2.5796679396404253E-2
200 194 2.599804636455329E-2
200 195 2.617189722767025E-2
200 196 2.631766067939545E-2
200 197 2.6434855737621735E-2
200 198 2.6523094388628925E-2
200 199 2.6582083727349257E-2
200 200 2.661162757724233E-2
