%%MatrixMarket matrix array real general
%
200 1
1.043825400654437E-1
1.11536911141379E-1
1.1906407270915148E-1
1.2697383104901533E-1
1.3527547923689562E-1
1.4397772519764895E-1
1.5308861799758222E-1
1.6261547271127486E-1
1.725647942296255E-1
1.8294220040697026E-1
1.9375234497478147E-1
2.0499884067747504E-1
2.1668418311189344E-1
2.2880967577572614E-1
2.41375356851114E-1
2.54379928267633E-1
2.6782068760339417E-1
2.8169346339383877E-1
2.95992554424627E-1
3.1071067358753296E-1
3.2583889687623524E-1
3.413666180920856E-1
3.572815098181914E-1
3.735694912032992E-1
3.902147030749278E-1
4.071994908739303E-1
4.245043958701399E-1
4.4210815508106455E-1
4.5998771027282276E-1
4.781182263748234E-1
4.9647311958734375E-1
5.150240954043742E-1
5.33741196713273E-1
5.525928620682647E-1
5.715459941670675E-1
5.905660384894856E-1
6.096170719841385E-1
6.28661901615264E-1
6.476621725063385E-1
6.665784853417436E-1
6.853705226126375E-1
7.039971832192105E-1
7.224167248694098E-1
7.405869136447438E-1
7.584651800376815E-1
7.76008780703217E-1
7.93174965110131E-1
8.099211462260911E-1
8.26205074325731E-1
8.41985012972941E-1
8.572199161984755E-1
8.718696058722858E-1
8.85894948257354E-1
8.992580287287881E-1
9.119223236491122E-1
9.238528684085096E-1
9.350164206677145E-1
9.453816178816659E-1
9.549191282342712E-1
9.636017941789206E-1
9.714047678559306E-1
9.783056377469393E-1
9.842845460274304E-1
9.893242961918562E-1
9.934104506509784E-1
9.96531418137581E-1
9.986785309039433E-1
9.998461118514966E-1
1.0000315318986914
9.992352580657649E-1
9.974608929328831E-1
9.94715206308699E-1
9.910081601268671E-1
9.863529277651213E-1
9.807659091511842E-1
9.742667431774467E-1
9.668783190867983E-1
9.586267886093136E-1
9.495415807171416E-1
9.396554209157836E-1
9.290043569962715E-1
9.176277931265063E-1
9.055685340528152E-1
8.92872841006259E-1
8.795905006541747E-1
8.657749080982576E-1
8.514831644894048E-1
8.36776189301176E-1
8.217188466744935E-1
8.063800845147313E-1
7.908330841902823E-1
7.751554177538217E-1
7.594292085927011E-1
7.437412903263042E-1
7.28183357623714E-1
7.1285210143773E-1
6.978493199693611E-1
6.832819955239936E-1
6.692623263351223E-1
6.55907701457116E-1
6.433406060123102E-1
6.316884434701072E-1
6.210832612889344E-1
6.116613662184048E-1
6.035628158899238E-1
5.96930774066993E-1
5.919107181235995E-1
5.886494890044234E-1
5.872941761179007E-1
5.879908323334437E-1
5.90883017493432E-1
5.961101725880991E-1
6.038058309377436E-1
6.140956773226491E-1
6.270954709172936E-1
6.429088530222435E-1
6.616250658256706E-1
6.833166136301774E-1
7.080369029981031E-1
7.358179029366151E-1
7.666678703923279E-1
8.005691897813199E-1
8.374763778749653E-1
8.773143069352309E-1
9.199766994011229E-1
9.653249465491929E-1
1.0131873012924566
1.0633584915848229
1.1155997957427375
1.1696396144057768
1.2251745659029465
1.2818711225881974
1.339367795420562
1.3972778628993598
1.4551926286719603
1.5126851799942487
1.5693146070537571
1.6246306312928351
1.6781785796335635
1.7295046312452127
1.7781612545332073
1.8237127446660364
1.8657407664578471
1.9038498040084701
1.9376724173338158
1.966874207400244
1.9911583945419835
2.0102699211559627
2.0239989977275172
2.0321840214686007
2.0347138089077292
2.0315290973606985
2.0226232849868286
2.0080423947128296
1.9878842632749951
1.962296972567378
1.9314765559669071
1.895664026928599
1.855141790525638
1.8102295104100785
1.7612795136008816
1.7086718233362281
1.6528089157913035
1.5941102996654075
1.5330070184582345
1.4699361737299594
1.4053355638849587
1.3396385272074085
1.2732690702350071
1.2066373533549606
1.1401355950489325
1.0741344448281582
1.008979862925317
9.449905325853607E-1
8.824558186518009E-1
8.21634274386674E-1
7.627526873709767E-1
7.06005645151555E-1
6.515555922326898E-1
5.995333422130984E-1
5.500390024524058E-1
5.031432636785333E-1
4.588890034366611E-1
4.1729315020649E-1
3.783487543136757E-1
3.4202721233652317E-1
3.0828059343535413E-1
2.7704401876311097E-1
2.482380486904734E-1
2.217710368269596E-1
1.9754141456872115E-1
1.7543987498432687E-1
1.553514301000866E-1
1.371573209167531E-1
1.207367646453736E-1
1.0596852857525854E-1
9.273232458433874E-2
8.091002249479919E-2
7.038668420804652E-2
6.105142378571262E-2
