%%MatrixMarket matrix array real general
%
200 1
4.174413344656257E-1
4.07931128721238E-1
4.107131456015617E-1
4.41619344121268E-1
3.999127262692081E-1
4.2590582943543237E-1
3.827335271479875E-1
4.085366725785485E-1
4.201462072041742E-1
4.236942526113226E-1
4.059370352011358E-1
4.358912292380814E-1
4.2533702278521646E-1
4.358817019073842E-1
4.0802132647782224E-1
4.3971686512162456E-1
4.4741766390302173E-1
4.7272727064538966E-1
4.872495338823765E-1
4.6289707158811744E-1
4.6157552596899143E-1
4.784458728113611E-1
4.9011640306829835E-1
4.865915593069777E-1
5.185310953521886E-1
4.9847641361923556E-1
5.291266193132681E-1
5.365321829070372E-1
5.032705911404239E-1
5.059160705950114E-1
5.365373627427756E-1
5.601284565725324E-1
5.484983749835405E-1
5.542046293126706E-1
5.727406562158461E-1
5.693315809886826E-1
5.648578382592075E-1
5.9932873845537E-1
6.31140858839156E-1
6.534610866172305E-1
6.164040697977741E-1
6.213890953134028E-1
6.054485066741716E-1
6.478226043591647E-1
6.568345054384148E-1
6.691741388891613E-1
6.87498920005079E-1
6.906143257544315E-1
6.808606373188943E-1
6.979522608150552E-1
7.04482069357082E-1
6.6152021360286E-1
6.713203856011452E-1
7.090496008637245E-1
7.322465973990119E-1
6.973544448730605E-1
7.385867068429678E-1
7.488872812571908E-1
7.31288873273668E-1
7.202880334228952E-1
7.481384219261357E-1
7.601213385302721E-1
7.727390449026112E-1
7.818152893657079E-1
7.932741494720196E-1
7.810855168547042E-1
7.942688689810672E-1
7.693302988338333E-1
8.129604212043706E-1
8.304136725324754E-1
8.207791648791608E-1
8.123665397085408E-1
8.065897312528594E-1
8.290782134490312E-1
8.151213991060394E-1
8.21376701501748E-1
8.353829701906238E-1
8.55555262781628E-1
8.233394134047338E-1
8.412626465281605E-1
8.363961274866821E-1
8.414462825531247E-1
8.923452663656799E-1
8.449725643894975E-1
8.481732574507962E-1
8.784502244951929E-1
8.83553019872682E-1
8.396653166431337E-1
8.852729897440487E-1
8.849908620932937E-1
8.631186321600542E-1
8.933849743271871E-1
8.886954408706494E-1
8.703691078119115E-1
9.399949858541017E-1
9.189816736491843E-1
9.32314598170033E-1
9.265599329984144E-1
8.940456376970238E-1
9.257841964923508E-1
9.347548845348141E-1
9.148939766061657E-1
9.192216067656194E-1
9.294057922030413E-1
9.492379620216658E-1
9.685630900724185E-1
9.810698491602274E-1
9.842632051721846E-1
9.621099625344761E-1
9.916088270864634E-1
9.713209175915936E-1
1.0081801004061328
1.0067718880469552
9.891008759987762E-1
9.931720742126522E-1
1.0214956485981943
1.0333343798939225
1.0531446810889045
1.0567552770639412
1.0857144271771848
1.082082918500557
1.0816713803170055
1.0436865980238423
1.1080211992116475
1.0771971470487445
1.0983799247178923
1.1020505076133338
1.1444483768540439
1.1232334817237792
1.1744424270094478
1.1426347737035902
1.165355381451601
1.1356928737786818
1.1709927734512167
1.1821525789448695
1.1694603737736247
1.1687539358822756
1.1826942800497304
1.212282420940531
1.1606866138303775
1.209288870327553
1.1780856561245472
1.1958835739256934
1.228107850697236
1.1844892494404053
1.2104681169070828
1.19393719506189
1.1734511200485425
1.185362153076989
1.162992742879335
1.178574012553212
1.2039663701324015
1.1976744974402544
1.1741143561681713
1.1768340174758698
1.166605410324267
1.1592508068825438
1.1730140842632393
1.1372277157639525
1.1335290238967675
1.0863446318265475
1.0795137193725743
1.1211759801837515
1.0635905422875878
1.093316356223188
1.0570331761686456
1.0713103082281272
1.0612919986181035
1.0532923007385961
1.030470769831073
1.0307678806241996
1.0064899695464893
1.006090714760824
1.0057379505597768
9.903778459564871E-1
9.819986971765438E-1
9.663540144301671E-1
9.246193099893526E-1
9.498595128005265E-1
9.290803184724683E-1
8.818417544682573E-1
9.078135591164391E-1
8.646213679520454E-1
8.843763237169059E-1
8.726112954328584E-1
8.760045383621929E-1
8.83048888176746E-1
8.378816573453558E-1
8.407194252669029E-1
8.43708068968726E-1
8.474746734103218E-1
8.2647299845732E-1
7.98176712848248E-1
7.749625076875938E-1
7.895679276462683E-1
7.86210081762001E-1
8.066291759192435E-1
7.735727325533908E-1
7.924272095426381E-1
8.273362723280345E-1
