%%MatrixMarket matrix array real general 
% Generated by Re::Solve <https://github.com/ORNL/ReSolve>
200 1
-9.9281401015570736e+02
2.6614265628207067e+03
-3.0684336309148566e+03
4.1715623405315855e+03
-3.5858953000564652e+03
-1.3248778862280305e+03
6.3518055907043163e+03
-8.9279181339736388e+03
4.7707264748192974e+03
3.4065468519119313e+03
-7.4392154541456839e+03
5.3738443803348273e+03
5.4691474161660881e+02
-5.0025306151909463e+03
2.1570744763990115e+03
4.9017918788555835e+03
-3.9670781233597954e+03
-3.0492051592606003e+03
5.9073988808906579e+03
-4.2295789279574601e+03
1.7206099226878432e+03
-1.6765847397565958e+03
1.3467104089647182e+03
6.6685598095500609e+02
-1.8392750262020854e+03
1.7871010672569391e+03
2.7101506065472495e+02
-1.1980686352053890e+03
1.7491821967086289e+03
-2.3323882515542209e+02
-4.5163796008263598e+03
3.2653116782470315e+03
-1.2976626586020575e+02
1.7623693934716184e+03
-1.0947096319323173e+03
-2.1902700242791761e+03
9.1078199174990732e+02
3.7509746639029545e+03
-6.4484770552181872e+03
2.8983239337819978e+03
3.3738731740881340e+03
-4.4009221019023680e+03
3.0162590511023882e+03
-2.7304664585214778e+03
2.3840512988425326e+03
-1.5063813034550112e+03
-4.0151308487195638e+03
7.6713976943767848e+03
-1.1351011635419854e+03
-5.2334775465403800e+03
5.9443540456528863e+03
-4.5383328054845333e+02
-4.6988144761458825e+03
2.1490929806139720e+03
1.5655291327202285e+03
-4.6483253396925647e+03
4.6652929762862041e+03
-1.2934277711741161e+03
4.3173333670309512e+02
6.4775322419946315e+02
-5.0522319277236820e+03
6.6960018251211441e+03
-5.0154564773873426e+03
2.8654549531404045e+03
9.3494493937573861e+02
-3.7339841612586170e+03
4.5214869096843759e+03
-1.9300165001736823e+03
-2.6712553404073615e+03
1.4720089890010786e+03
2.4877374841857236e+03
-6.0951526863258186e+02
-2.1113661786390348e+03
1.6334347028887205e+03
-6.9936398312190431e+02
-7.8856402074190555e+01
-8.1205269472207874e+02
3.3302143548973254e+02
1.8482559569385776e+03
-3.0325421045687544e+03
4.5621636564526898e+03
-4.3095778303002298e+03
8.8158258138515521e+02
1.1821112045530463e+03
-1.5394837049142807e+03
3.7566111725578958e+03
-3.7324571893342363e+03
-5.8936179315868276e+02
2.3978963776429337e+03
7.8921020941724419e+02
-2.2513530715675224e+03
-2.1857396617412924e+03
3.6022449495902838e+03
-4.1418229729862651e+02
-1.5573329031156027e+02
3.2166519359959348e+03
-6.2686079402656178e+03
2.4902548247798113e+03
3.6683330712264578e+03
-3.3467031284355908e+03
-3.3662316775740610e+03
4.1944314604820975e+03
2.4968613024684546e+03
-6.4815605173352706e+03
3.1561801045384595e+03
2.5982868159720465e+02
-1.1307933810012180e+03
4.0019212931050643e+03
-2.5068142872534863e+03
-2.4132870375007046e+03
7.5601648686745864e+02
3.0389701026147563e+03
-1.1894568572553674e+03
-3.9405071387127182e+03
3.9724646703956587e+03
-1.4609709252440573e+03
1.6521055681126581e+03
8.5447570308876584e+02
-4.3536896670023625e+03
4.3986773592694426e+03
-3.5613688176452160e+03
2.5396963680972085e+03
1.2116816068801143e+02
-1.0786430699187329e+03
2.1395743833242148e+02
-1.0933824799937943e+03
2.1765518544276802e+03
-2.2429536803557385e+03
-1.2241608563658333e+03
2.8509372679668836e+03
1.7780230074476508e+03
-2.7954677009530214e+03
-2.3284661557642748e+03
5.3011914265118585e+03
-4.3301898445147544e+03
1.3610041414321277e+03
2.5768871159079808e+03
-4.7773022079566990e+03
7.7459454480608456e+03
-5.8940316667411771e+03
3.0610744760290459e+02
1.6276052549462611e+02
-1.4797781041631997e+03
5.5560599853495332e+03
-5.2017683188795172e+03
1.8721566460090148e+03
2.3124388382616453e+03
-5.2960517596292402e+03
-3.8821260173483415e+02
6.9263164471109530e+03
-6.0583798802104357e+03
-1.6391167565981823e+03
8.3950376593152359e+03
-4.3354869768353801e+03
-1.2477963928257468e+03
1.7940670250470885e+03
-2.3718584287123485e+03
3.5654622437889375e+03
-5.4928835186596452e+03
4.0813258775126337e+03
2.8869057026011933e+03
-6.8698733851516254e+03
4.3836783514862391e+03
9.9527960257058839e+02
-2.5615371342668959e+03
-1.3452840412441910e+03
2.3573889101088889e+03
-8.1039380788055860e+02
4.2084569523927166e+03
-5.3127007723472570e+03
4.9800189988611237e+01
1.5378204640748054e+03
-1.0967076513761722e+03
4.6075655690720851e+02
1.9415342901299100e+03
-2.4333090723915857e+03
1.4344881704032268e+03
1.1811560404931879e+03
-2.3256789777806453e+03
1.9342178288222958e+03
-4.5895376394989908e+03
6.5691117393533659e+03
-2.8027763888230838e+03
-4.9054148769481017e+03
5.6801784321561609e+03
2.6576384414278255e+03
-5.8456558164333564e+03
2.5676059773324596e+01
6.7538707149418551e+03
-8.6354269303794154e+03
3.7620536409727283e+03
5.3045225431908693e+03
-1.0073274815797546e+04
6.9256042838797348e+03
-6.8064516981357156e+02
-4.1094465897080972e+03
4.8202428437086710e+03
-3.5680776046623942e+03
2.3167295382825669e+03
-7.8666274741854249e+02
